343
L = 17.9630223142
Ar 8.200264686301e+00 9.505337965500e+00 5.926769473138e-01
Ar 8.325150209544e+00 1.769177120413e+01 5.185649620000e+00
Ar 6.292974500864e+00 1.014051799041e+01 1.069345023028e+01
Ar 1.147686219436e+01 7.064329002284e+00 1.514119210040e+01
Ar 1.481887356943e+01 3.095439727429e-01 1.263478369237e+01
Ar 7.257220328313e+00 1.463618796012e+01 3.592703618435e+00
Ar 3.127444212522e-01 7.180315373015e+00 1.016294760061e+01
Ar 9.826791588044e+00 1.097673370612e+01 1.033148972185e+01
Ar 1.306569795397e+01 7.864965447417e+00 1.293426918772e+01
Ar 2.712707679556e+00 7.952782794759e+00 1.609782311425e+01
Ar 2.255977427118e+00 4.183825163682e+00 1.231112522222e+01
Ar 9.040185375261e+00 1.103131433676e+01 7.910727923337e+00
Ar 4.158030100878e+00 5.294991424416e+00 1.204758963833e+01
Ar 1.365842164993e+01 1.153311951562e-01 9.090170101696e+00
Ar 4.165115034761e+00 3.419769676076e+00 1.048358423666e+00
Ar 1.644841512094e+01 1.463438751095e+01 1.507136694620e+00
Ar 4.776190885189e+00 1.624704848768e+00 7.179936501907e+00
Ar 8.683456684556e+00 4.525853040977e+00 1.539037582792e+01
Ar 9.603973868720e+00 2.420881324239e-01 2.435198417592e+00
Ar 8.281255416716e+00 1.005970403617e+01 1.041171792173e+01
Ar 1.677815099812e+01 1.517447962903e+01 1.783923852184e+01
Ar 1.075418366549e+01 1.284787418709e+01 9.249172601221e+00
Ar 1.055373683517e+01 7.759216173442e+00 1.443555105313e+00
Ar 2.699630890173e-03 1.660835001653e+01 1.386838942000e+01
Ar 1.201707068210e+01 1.485772207503e+01 2.453632858171e+00
Ar 1.212391044731e+01 1.410868120426e+01 1.400493726882e+01
Ar 9.574975984537e+00 7.719666554163e+00 1.780923357154e+01
Ar 7.845522295156e-01 2.082344694911e+00 3.228679300602e+00
Ar 6.462930894387e-01 8.126769370727e+00 4.141196377937e+00
Ar 8.389995944347e+00 1.429940106528e+01 9.906985291201e+00
Ar 1.700683630378e+01 1.032472142985e+01 1.748523028937e+01
Ar 1.761986770880e+01 9.879191650264e+00 1.031023339795e+01
Ar 3.709056764091e+00 1.398339650970e+01 5.176656230160e+00
Ar 3.049607005834e+00 1.029365418558e+01 1.501697444946e+01
Ar 1.028763815180e+01 3.735851025195e+00 1.030496115559e+01
Ar 1.092681704027e+01 5.975962410067e+00 8.100197962838e+00
Ar 2.758933850761e+00 1.771203407741e+01 1.197331822824e+01
Ar 1.543113480095e+01 1.912936613101e+00 1.616652906754e+01
Ar 8.707825408310e+00 7.156554223920e+00 1.487269222917e+01
Ar 1.170574016105e+01 1.677512851970e+01 7.190265818606e+00
Ar 1.278491338870e+00 1.106551847090e+00 3.957059907790e+00
Ar 1.042063373672e+01 1.522632298689e+01 8.709958461930e+00
Ar 5.025045570458e+00 6.862856587034e-01 1.177459608480e+01
Ar 3.537221743425e-01 1.792857705611e+01 1.014230292905e+01
Ar 1.161120943053e+01 1.426816393247e+01 5.088115809368e+00
Ar 9.769577647821e+00 1.127786127499e+01 6.675957142314e+00
Ar 1.051225421042e+01 9.236916196885e+00 7.000919585733e+00
Ar 3.042689323084e+00 1.377278361854e+01 4.055590750743e+00
Ar 1.671955729364e+00 4.600772709040e+00 3.339766614477e+00
Ar 1.531375956440e+00 4.334240202653e+00 8.124389298148e+00
Ar 6.483865779425e+00 1.169012850675e+00 1.192752471953e+01
Ar 1.307359733803e+01 9.973113826626e+00 7.571933624670e+00
Ar 1.517271793007e+01 6.410046398674e+00 2.130753074882e+00
Ar 1.022667379509e+01 1.676750479961e+01 4.333709262473e+00
Ar 4.565294770827e+00 9.857270067607e+00 2.569057519743e+00
Ar 2.642714661751e-01 1.340498272603e+01 1.727171280849e+01
Ar 9.523379497029e+00 8.079962391792e-02 1.618480092514e+01
Ar 1.692174312359e+01 1.756237357748e+01 5.397138207342e+00
Ar 1.164438343725e+01 8.673106642110e+00 5.539671256966e+00
Ar 7.895947443536e+00 1.164523746213e+01 1.167653551420e+01
Ar 3.039438362833e+00 7.684601954699e+00 7.519566672361e+00
Ar 1.267133006343e+01 1.375167059435e+01 7.913143120826e+00
Ar 9.503865232666e+00 2.841023601567e+00 1.487735693162e+01
Ar 5.414483211955e-01 3.424758520794e+00 7.922681217832e-01
Ar 1.453557556954e+01 6.984999102658e-01 5.943576904055e+00
Ar 8.730277922711e+00 2.980020533961e+00 1.012745547213e+01
Ar 1.692505619163e+01 1.584995783287e+01 5.141909299098e+00
Ar 1.293336048374e+01 1.516670002049e+01 7.547888932877e+00
Ar 1.670188819928e+01 3.773717426312e+00 1.733649805862e+01
Ar 8.741894968079e+00 1.135859445772e+01 1.099443028423e+01
Ar 8.767922637649e+00 3.702083087762e-02 1.195923155193e+01
Ar 2.892213890120e+00 4.887500634513e+00 1.172679698109e+01
Ar 8.607961672242e-01 1.690283524508e+01 7.710851909338e+00
Ar 1.431252189860e+01 9.885183371788e+00 7.832648092876e+00
Ar 3.206311832029e+00 7.156388029152e+00 2.543560645479e+00
Ar 1.031511151289e+01 5.428273133142e+00 1.222803032999e+00
Ar 5.773198957584e+00 7.619787859131e+00 1.010697541915e+01
Ar 1.004338838387e+01 1.624480410426e+01 1.756495082697e+00
Ar 5.960157286785e+00 7.046083443971e+00 8.937112378517e+00
Ar 6.974134001148e+00 3.749689643189e+00 6.583795314110e+00
Ar 1.732711079667e+01 4.819453422276e+00 3.986727582178e+00
Ar 1.382050006161e+01 7.180007061205e+00 1.478260018519e+00
Ar 1.546359784522e+01 9.623107412502e-01 9.096224983397e+00
Ar 5.073033709579e+00 1.304896426567e+01 4.962514503693e+00
Ar 1.625501949250e+01 1.477410886696e+01 3.110998444675e+00
Ar 1.603670966997e+01 8.731985381217e+00 1.055986130061e+01
Ar 1.307125534920e+01 8.592118434804e+00 4.923181830937e+00
Ar 3.819098714700e+00 6.431030127463e+00 4.674155107258e+00
Ar 4.581931625915e+00 1.119742353579e+01 9.317917310196e+00
Ar 3.983220557994e+00 1.532994290635e+01 5.187375234953e+00
Ar 1.375386143428e+01 1.149674423110e+01 2.649131339491e+00
Ar 6.321861320253e+00 1.454550886363e+01 6.250352879169e+00
Ar 1.049472921706e+01 1.185138786315e+01 1.476921167550e+01
Ar 1.031676318722e+01 7.699291619757e+00 1.175968702183e+01
Ar 3.846476747467e-01 5.900579949971e+00 5.882506709060e+00
Ar 1.321490713543e+01 2.533751040846e+00 1.758127855070e+01
Ar 4.677225168466e+00 1.086941868627e+01 3.961914099071e-01
Ar 5.790559801483e+00 5.474466027226e+00 3.264416239836e+00
Ar 1.521490008835e+01 1.496839489789e+00 5.040004236873e+00
Ar 5.981553823422e+00 3.715142319103e+00 3.669214084955e+00
Ar 7.414890973667e+00 1.173026733610e+01 1.378102751751e+01
Ar 8.177758237279e-01 1.497810328926e+01 1.566116081906e+01
Ar 1.321932699154e+00 1.534057120576e+01 3.590365918124e+00
Ar 1.704721453968e+01 9.381311538464e+00 2.184224296238e+00
Ar 1.465568881423e+01 1.183565075075e+01 9.727090455619e+00
Ar 1.024646195396e+01 1.512821622498e+01 1.503451553791e+01
Ar 1.725731750489e+01 5.936747512605e+00 1.153204506564e+01
Ar 1.768785757606e+00 1.343197927969e+01 3.705878586748e+00
Ar 5.750729833828e+00 7.426742937290e-01 5.061398883010e+00
Ar 2.185484219289e+00 1.417729366348e+01 1.787136934346e+00
Ar 3.718573108060e+00 2.044249642743e+00 1.447448862882e+01
Ar 1.205094792126e+01 4.776841182136e+00 8.390019627742e+00
Ar 9.125614791098e+00 2.439741376699e+00 1.310352409407e+01
Ar 1.356778164275e+00 8.766462593972e+00 9.630060849324e+00
Ar 1.505059073355e+00 1.394746130366e+01 7.083852654466e+00
Ar 2.721484015020e+00 1.318651418338e+01 2.578839039345e+00
Ar 9.284240830231e+00 1.435531964951e+01 1.755705726119e+01
Ar 1.355770255892e+01 1.637592891316e+01 1.496606682603e+00
Ar 1.765370598548e+01 1.252399268302e+01 6.085055990214e+00
Ar 1.011035339088e+01 1.021925858639e+01 6.981340427756e-01
Ar 8.993916941809e+00 1.738135261025e+01 1.435775301643e+01
Ar 1.146667664151e+01 1.470644122562e+01 4.019291565236e+00
Ar 1.040198769796e+01 1.381010567032e+01 1.311762138731e+01
Ar 6.197472942635e+00 5.975580613494e+00 1.022762609223e+01
Ar 1.556310849099e+01 5.329539125677e+00 1.167813364499e+01
Ar 1.151824004354e+01 1.144593890953e+01 1.206736467244e+01
Ar 5.960226148044e+00 1.713529566579e+01 5.447414423196e+00
Ar 1.378525484738e+00 3.047104865631e+00 2.837592631476e-01
Ar 2.904624204073e-01 1.635016296762e+01 1.848921087468e+00
Ar 1.486041758856e+01 1.079593340404e+01 9.299500326469e+00
Ar 1.424531558559e+01 4.691328778728e+00 5.092992441817e+00
Ar 6.048963448059e+00 1.545154908680e+01 7.943132604132e+00
Ar 1.647782398756e+01 1.224433818375e+01 5.980911520164e+00
Ar 5.037808088956e-02 1.169235177873e+01 1.918102814809e+00
Ar 1.106190522628e+00 1.662940773176e+01 5.517547467808e-01
Ar 6.680946290971e+00 2.090824322027e-01 1.503242521636e+01
Ar 1.754948239658e+01 2.948115887148e+00 1.676540873222e+01
Ar 3.802899308504e+00 1.765074900841e+01 1.145570482078e+01
Ar 7.219296036309e-01 1.200961641492e+01 1.326995085239e+01
Ar 1.700678144135e+01 3.028887442741e+00 1.443791370860e+01
Ar 1.467539654536e+01 1.241552333613e+01 1.173428722657e+01
Ar 1.601862278827e+01 1.173953172532e+01 1.633408023887e+01
Ar 1.033880060277e+01 1.442292169299e+01 5.309671362801e+00
Ar 1.197011229464e+01 4.099349794227e+00 9.557968694923e+00
Ar 1.629887526917e+01 2.080108354586e+00 5.065019261995e+00
Ar 1.462348421030e+01 1.557579822808e+00 6.741467874135e+00
Ar 1.408759280596e+01 9.949461334734e+00 1.217256653332e+01
Ar 1.291966962382e+01 5.834129258418e+00 5.000195853423e+00
Ar 1.373035294842e+01 1.196312370980e+01 3.684488394296e+00
Ar 1.066383853634e+01 1.718089624451e+01 1.448933516426e+01
Ar 4.166883758777e+00 8.374516057069e+00 4.860326556913e+00
Ar 1.223065598959e+01 1.699585888600e+01 3.674487246183e+00
Ar 1.589978187433e+01 1.459970102737e+01 5.212114975985e+00
Ar 9.273277717245e+00 1.395963236116e+00 2.163339284658e+00
Ar 1.028602089034e+01 4.637852200640e+00 1.641319892135e+01
Ar 8.640949969796e+00 1.276189926637e+01 6.236408064178e+00
Ar 1.387995817094e+00 1.739102919531e+00 5.257834662292e+00
Ar 7.009950331724e+00 1.628207937806e+01 1.073713589579e+01
Ar 3.628793952117e+00 8.579637477735e+00 4.042293767957e+00
Ar 6.197484234782e+00 1.694616279526e+01 8.875747359679e+00
Ar 9.820526502444e+00 1.228542164175e+01 1.322510639911e+01
Ar 1.079416050773e+01 1.567547900801e+01 1.748608668301e+01
Ar 4.316753885424e+00 9.294143555030e+00 6.359958127340e+00
Ar 1.726906045983e+01 1.610145054969e+01 5.947641490491e-01
Ar 4.543441760376e+00 1.701727370345e+01 1.096620483519e+01
Ar 1.554103608172e+01 9.791630935332e+00 1.038842719701e+01
Ar 1.111564720912e+01 1.730913666847e+01 1.577889365003e+01
Ar 7.618188617127e+00 1.651265217888e-02 7.527036169767e+00
Ar 1.223602806083e+01 1.291540135666e+01 1.784631432636e+01
Ar 1.533908933596e+01 1.404125388148e+01 3.151347721583e+00
Ar 5.821505052688e+00 1.372523499477e+01 1.794038844144e+00
Ar 1.632637853851e+01 5.354510320300e+00 1.750094398105e+01
Ar 9.111362764478e+00 3.333034647882e+00 1.402050056020e+01
Ar 2.974551584880e+00 3.797043397174e+00 7.212143693379e+00
Ar 1.155391935616e+01 1.597431240878e+01 5.407905227241e+00
Ar 1.713205189752e+01 2.706033315546e-01 6.415836187384e+00
Ar 1.720699444581e+00 9.201894239760e-01 6.909365663294e+00
Ar 2.910399574878e+00 9.330836818068e+00 9.497402597117e+00
Ar 8.058580368062e+00 1.646410490550e+01 1.101849230390e+01
Ar 1.107001473383e+01 8.504381696551e+00 1.369853962999e+01
Ar 1.573405691974e+00 1.613352905132e+01 4.766449744895e+00
Ar 1.660216807502e+01 1.722140748373e+01 1.107999160810e+00
Ar 1.536973015436e+01 1.096430315064e+01 5.893414720127e+00
Ar 1.686043896321e+01 3.941529636670e+00 1.131514560519e+01
Ar 7.213071020575e+00 9.805459086945e+00 1.757770693074e+00
Ar 1.016045826353e+01 5.084369196188e+00 7.470819198010e-02
Ar 1.391650735309e+01 2.991912779993e+00 7.429184609215e+00
Ar 5.143891454474e+00 3.171172209706e-01 7.043698536319e+00
Ar 1.086935198183e+01 3.062970815207e-01 2.875168337315e+00
Ar 1.758444266673e+01 8.969949249691e+00 2.337155532065e-01
Ar 4.718348885371e+00 1.107724196487e+01 1.278041055416e+01
Ar 1.737232423143e+01 8.478526987564e+00 1.706399642774e+01
Ar 6.334642304226e+00 6.412419906888e+00 4.541370009558e+00
Ar 7.877175915683e+00 1.360788277360e+01 1.036835767843e+01
Ar 3.841078189873e-01 1.568211267187e+01 5.180536348152e+00
Ar 6.280300970663e+00 1.776903137244e+01 1.183218870886e+01
Ar 6.726969941028e+00 1.467587231188e+01 1.257363079557e+01
Ar 1.326356454512e+01 7.764460442262e-01 1.692631042924e+01
Ar 1.766436918333e+01 1.600398898376e+01 1.657389000404e+01
Ar 8.913058500422e+00 1.377007215077e+01 3.401150833642e-01
Ar 3.649268777886e+00 1.013996638083e+01 1.335703679554e+01
Ar 1.752874777591e+01 1.684444852440e+01 5.700274972937e+00
Ar 1.441443179365e+01 4.117751891631e-02 5.225181808956e+00
Ar 9.963891356791e+00 2.644444435973e+00 2.383298058647e+00
Ar 1.568344554182e+01 9.665945528495e+00 1.641731856592e+01
Ar 8.402288112233e+00 4.883830311955e+00 1.655910822209e+01
Ar 4.001193190048e+00 8.435547942167e+00 1.920758568466e+00
Ar 1.075695925501e+01 2.471991159932e+00 1.456526544282e+01
Ar 2.078444776908e+00 7.311184185566e-01 4.655420523372e+00
Ar 4.206860792995e+00 9.518985804586e+00 1.432463601731e+01
Ar 7.479004954071e-01 2.578395667516e+00 7.855511312833e+00
Ar 8.688239925632e+00 1.554194713392e+01 1.331125739499e+01
Ar 4.130844811179e+00 3.403827989882e+00 1.437829608546e+01
Ar 5.106543168040e+00 5.273509738046e+00 4.270054202898e+00
Ar 1.044885346641e+00 2.571546685764e+00 8.921926635637e+00
Ar 7.094806744584e+00 1.581146584625e+01 3.731588724239e+00
Ar 1.655015588032e+01 3.559693609843e+00 4.861409978178e+00
Ar 1.592994712774e+01 2.174762415986e+00 6.509085366147e+00
Ar 5.495013744570e+00 8.189546326670e+00 2.055144314114e+00
Ar 5.006815826113e+00 1.001375172576e+01 7.412230944573e+00
Ar 8.450198305107e+00 5.769562077326e-01 1.366378332587e+01
Ar 2.022345702078e+00 8.102585012028e+00 9.031422745295e+00
Ar 3.497997179877e-01 5.002441858029e+00 4.159411936505e+00
Ar 1.456546870959e+00 1.683282653337e+01 1.641617274141e+01
Ar 9.040159575858e+00 8.234969082254e+00 8.234041139963e+00
Ar 3.606812184882e+00 4.703570673393e+00 2.898704206342e+00
Ar 1.122677247396e+01 1.635284838410e+01 1.338978140067e+01
Ar 7.972414493004e+00 1.532033844490e+01 4.037037555587e+00
Ar 8.064322617914e-01 1.297007320812e+01 6.954042145410e+00
Ar 1.504019744514e+01 1.161734670130e+01 1.701287894954e+01
Ar 9.203583004665e+00 1.768387709357e+01 4.369597413117e+00
Ar 1.428436133960e+01 2.250182783688e+00 1.175397963745e+01
Ar 8.290990884421e+00 1.349790285553e+01 1.166420684748e+00
Ar 8.688504783710e+00 2.809292349731e+00 7.744021554013e+00
Ar 5.682219064810e+00 1.498753456719e+01 1.174682229236e+01
Ar 1.528521810350e+01 5.282588970213e+00 1.562948913170e+01
Ar 4.730466710011e+00 4.017459402917e+00 4.508450851068e+00
Ar 6.998426438864e+00 7.765665546538e+00 8.056554720359e+00
Ar 1.737650747015e+01 4.809460778417e-01 9.510932126196e+00
Ar 9.411183638509e+00 4.190071156108e+00 1.467717341957e+01
Ar 1.476980905942e+01 1.217496644997e+01 2.218191386452e+00
Ar 1.793545181064e+01 7.551482456245e+00 1.340820991425e+01
Ar 1.651155828467e+01 1.272991596604e+01 6.883223686840e+00
Ar 5.885818311168e+00 2.289025553062e+00 8.167764330542e+00
Ar 4.910728805369e+00 1.578983675883e+01 1.558634820709e+01
Ar 2.775502156140e-02 1.367164893340e+01 1.225429674534e+01
Ar 1.311686265354e-01 7.020763614809e+00 1.118036588346e+01
Ar 3.093713167767e+00 8.496572613394e+00 1.369190894460e+01
Ar 1.754608491765e+01 1.118043900589e+01 9.147680051862e+00
Ar 1.132019438472e+01 7.247824601336e+00 1.629083018520e+01
Ar 1.786363023942e+01 1.653624145508e+00 1.682927478924e+01
Ar 1.354037933221e+01 1.766505235011e+01 1.621449440359e+01
Ar 2.965824580385e+00 3.575062298955e+00 3.723794296795e-01
Ar 1.030059046119e+00 6.083826771171e+00 1.555221674193e+01
Ar 8.776602051279e+00 1.238366682867e+01 1.618732640517e+01
Ar 1.268488706705e+00 5.154285337397e+00 6.463816577886e+00
Ar 1.194019829820e+01 1.660672558435e+01 9.144814584143e+00
Ar 1.485400423802e+01 3.417949549758e+00 4.025309252174e+00
Ar 8.297576026690e+00 4.286878794890e+00 4.692012455660e+00
Ar 1.715908815601e+01 1.227606087980e+00 1.511932883012e+01
Ar 8.177817662093e+00 1.697861820217e+01 8.041084692203e+00
Ar 2.246504403317e+00 1.937025479920e+00 5.741789701709e+00
Ar 6.988635259412e+00 1.366302358375e+01 7.909745554183e+00
Ar 3.430065510497e+00 1.573072676478e+01 1.519590074352e+01
Ar 7.571616331905e+00 5.499339811435e-01 5.264644075986e+00
Ar 2.597760416160e+00 1.186582045393e+01 5.730886506518e+00
Ar 9.795465575025e+00 1.136225736157e+01 5.407789806918e+00
Ar 1.651893138048e+00 5.884948385634e+00 7.192112871427e+00
Ar 4.158789623074e+00 5.924248417999e+00 1.105583660668e+01
Ar 4.991262896500e+00 6.405167288082e+00 8.626195377061e+00
Ar 1.491769657406e+01 9.419137223334e+00 1.444380995907e+01
Ar 9.533618374135e+00 3.942987970768e+00 1.926408674447e+00
Ar 7.653199256162e+00 4.425396920543e+00 5.953597703919e+00
Ar 7.218802272814e-01 1.201071110928e+01 1.223832864262e+01
Ar 1.330054949796e+01 1.603272337978e+00 7.052914458385e+00
Ar 8.734548796202e+00 8.887914551089e+00 5.738792713347e+00
Ar 1.224530350626e+01 1.568181590644e+01 4.451277977837e+00
Ar 5.992203644149e+00 1.186668765351e+01 1.212980377907e+01
Ar 4.369009999495e+00 5.849884543785e-01 9.797227409009e+00
Ar 9.320405954512e+00 1.971813871053e+00 4.416180052388e+00
Ar 1.649931672392e+01 1.498356725833e+01 9.828124632479e+00
Ar 1.150845571636e+01 7.270848872689e+00 3.688585071521e+00
Ar 3.553567056771e-01 3.038359779070e+00 2.828218468574e+00
Ar 6.475782797786e+00 1.384558610115e+01 1.117174831797e+01
Ar 1.167020390966e+01 1.756829470756e+01 9.968871604423e+00
Ar 1.286232086922e+01 1.606756164603e+01 2.811446897494e+00
Ar 1.149739199030e+01 3.003541861725e+00 7.617606024870e-02
Ar 6.955590874107e+00 4.003222374501e+00 4.382020534409e+00
Ar 5.712086076887e+00 1.086761097252e-02 4.393485046357e+00
Ar 9.152912691023e+00 5.451751762664e+00 1.521150223255e+01
Ar 9.129679036793e+00 4.808562080274e+00 1.161812655316e+01
Ar 1.366167439509e+01 1.258681837741e+01 2.396883386280e+00
Ar 1.014892559661e+01 5.250001675192e+00 5.947864860734e+00
Ar 2.263321328164e+00 4.316677789796e+00 9.131959496530e+00
Ar 1.277944974088e+01 2.072433439466e+00 5.693759048587e-01
Ar 4.494937571579e+00 3.091829709709e+00 2.624235296952e+00
Ar 1.477338613713e+01 1.723590505693e+01 1.742849749978e+01
Ar 1.517669693204e+00 1.330265097985e+01 8.473263694954e+00
Ar 1.105008888912e+01 9.286857284218e+00 5.098549904503e+00
Ar 7.647863974074e+00 1.300553459797e+01 1.658021112294e+01
Ar 8.938542053543e+00 1.603528605345e+01 3.631202438671e+00
Ar 2.795204243446e+00 2.808974124611e+00 1.445379027127e+01
Ar 1.601739586371e-01 9.419595727080e+00 2.853149870572e+00
Ar 2.148473564686e+00 1.700562501266e+01 1.465178916302e+01
Ar 1.266465745411e+01 7.817917387713e+00 6.098756390250e+00
Ar 5.128289343305e+00 1.737274447960e+01 8.991458613574e+00
Ar 3.663541197248e+00 4.138723446566e+00 4.233800504442e+00
Ar 7.362545241837e+00 8.861687690981e+00 1.542332087998e+01
Ar 1.140561116793e+01 4.934432527838e+00 1.533021128949e+01
Ar 5.352261379354e+00 3.104090849985e+00 1.297544862186e+01
Ar 2.589677983283e+00 6.807368088525e+00 8.227530805341e+00
Ar 1.367730440704e+01 9.521709921708e+00 8.875513037396e+00
Ar 3.427176328412e+00 9.656565223306e+00 3.816352630160e+00
Ar 8.142276101302e+00 1.677195628863e+01 3.542956312925e+00
Ar 1.010024908060e+01 1.391177802329e+01 1.674010754818e+00
Ar 1.512179961357e+00 6.802478363857e+00 1.629920666072e+01
Ar 1.575921364500e+01 1.609046444837e+01 1.314001112896e+01
Ar 7.073276958674e+00 1.259191665325e+01 1.138136700264e+01
Ar 1.431175838137e+01 5.331395300012e+00 2.945136576373e+00
Ar 6.429688056823e+00 8.590320146939e+00 8.867405990677e+00
Ar 7.847710762497e+00 1.094648971822e+01 1.070086529822e+01
Ar 1.184391429563e+01 1.543526099904e+01 7.028647786791e+00
Ar 9.855771486079e+00 8.159389900237e+00 4.785117504014e+00
Ar 4.372393226624e-01 1.537582591360e+00 8.422613310845e+00
Ar 1.595999896993e+01 1.556477794383e+01 1.519465854894e+01
Ar 7.488133351523e+00 1.326094164996e+01 2.803188139294e+00
Ar 1.513847799954e+01 1.595736749808e+01 7.473051117730e-01
Ar 1.369785821124e+00 1.258683817950e+01 1.577225968447e+01
Ar 1.021507623924e+01 1.632306552134e+01 1.687478780846e+01
Ar 1.586960887227e+01 5.259406065441e+00 1.001283128417e+01
Ar 7.420336056885e+00 1.450886763471e+01 9.157724114926e+00
Ar 1.414488343354e+01 8.701749311598e+00 1.414219608429e+01
Ar 7.471837140113e+00 2.486102593231e+00 1.281697061198e+01
Ar 5.383597803548e+00 1.350806268781e+01 1.796028952049e+01
Ar 1.020681231454e+01 1.093176666289e+01 7.921214505673e+00
Ar 1.684706303029e+01 3.448014603444e+00 6.158529316865e+00
Ar 1.108616312002e+01 1.152248476228e+00 1.197921634592e+01
Ar 1.697277479303e+01 6.939204777118e+00 1.046080675330e+01
Ar 4.058999548716e+00 1.150337757351e+01 5.676886554976e+00
Ar 1.691853018477e+01 1.718316278435e+01 3.809588614201e+00
Ar 1.314749927568e+01 9.897443731020e+00 4.949913047038e-01
Ar 5.766146100337e+00 7.336076885674e+00 7.878279849612e+00
Ar 7.323650054541e+00 1.449246367183e+00 1.366595278834e+01
