343
L = 18.4355556924
Ar 5.370356309924e+00 1.813809735745e+00 3.882167790367e+00
Ar 1.702560234397e+01 4.913182424939e+00 8.045407710489e+00
Ar 1.677804451551e+00 1.199825113536e+01 1.280993843466e+01
Ar 1.216870369434e+01 1.477138367556e+01 1.399482668400e+01
Ar 1.225294635899e+01 6.967170852861e+00 1.579616909804e+01
Ar 9.024932903643e+00 7.463604161936e+00 8.768177399357e-01
Ar 1.297115893373e+01 2.621166489656e+00 1.065430126603e+01
Ar 1.656237441359e+01 1.216985429312e+01 4.012868399481e+00
Ar 1.055901311089e+01 9.958052979402e-01 1.668013225586e+01
Ar 1.506035979957e+01 8.474887866654e+00 1.111693520732e+01
Ar 3.516313885114e+00 6.058975244370e+00 4.774039699348e+00
Ar 1.734820888549e+01 2.616083563499e+00 7.386846828686e+00
Ar 5.817475098901e+00 1.500069411333e+01 9.008292440612e+00
Ar 1.081679081056e+01 4.963279436618e+00 2.646035882911e+00
Ar 1.894969311387e+00 1.618231439043e+01 4.272179328302e+00
Ar 1.372085697878e+01 1.646918656935e+01 2.175297124183e+00
Ar 1.191575545630e+01 1.369202924733e+01 2.379129592705e+00
Ar 4.854158397841e-01 1.468801051142e+01 7.234966499799e+00
Ar 1.625572248790e+01 1.657794834266e+01 4.332631480718e-01
Ar 1.566878326177e+01 1.809844567580e+01 1.059717498695e+01
Ar 1.200805639407e+01 1.397288630665e+01 1.000229543325e+01
Ar 1.579754728073e+01 2.439915091320e+00 1.137781537198e+01
Ar 1.741726985629e+01 8.472396073360e+00 9.027435918676e+00
Ar 1.657674388330e+01 1.218894910514e+01 5.462726415931e-01
Ar 1.316585631757e+01 1.295117817796e+00 1.557795186488e+01
Ar 1.189519341154e+01 1.716651004339e-01 9.487456366580e+00
Ar 1.497611338875e+01 5.645069386450e+00 1.761653755772e+00
Ar 1.798930034658e+01 1.340456948281e+01 1.329649842754e+01
Ar 9.140982485657e+00 1.522120115606e+01 1.104377520882e+01
Ar 1.325551406241e+01 8.968634631975e+00 7.597856828481e+00
Ar 1.026028803037e+01 8.670676037949e+00 5.765102318736e+00
Ar 6.114738780013e-01 1.362296219048e+01 1.396867660687e+01
Ar 1.360810327148e+01 1.594661533025e+01 5.048756535076e+00
Ar 1.326402689808e+01 6.272097028941e+00 1.517343369828e+01
Ar 9.128271177880e+00 1.169828671309e+01 4.190254070677e+00
Ar 1.319486951168e+01 5.258253714896e+00 2.685950153197e+00
Ar 1.399189080738e+01 9.247992325839e+00 1.403726789485e+01
Ar 1.663076358527e+01 3.221867328197e+00 6.849331261854e+00
Ar 8.867059406988e-01 1.825269926487e+01 2.461085755293e+00
Ar 9.608480762035e+00 5.681203367290e+00 1.516030826863e+01
Ar 1.743645937637e+01 9.085447431089e+00 1.207094265091e+01
Ar 1.083063033149e+01 8.496122241438e+00 1.301488831486e+01
Ar 1.039531351884e+01 1.314968037467e+01 1.439869937192e+01
Ar 9.481032251536e+00 1.732659055944e+01 5.207946885189e+00
Ar 1.050275330685e+01 5.374994037270e+00 1.045382889432e+01
Ar 4.073728129867e+00 1.355159817564e+01 5.836127631245e+00
Ar 1.155571967718e+01 1.767826447995e+01 2.780615767559e-01
Ar 4.401870796751e+00 6.191463532526e+00 1.469995606497e+01
Ar 1.815027086082e+01 9.353342730590e+00 3.722861332776e+00
Ar 3.207896398250e+00 4.822429281069e+00 1.308096104969e+01
Ar 4.236119556828e+00 1.139855889082e+01 7.230120433328e+00
Ar 1.475345291312e+01 1.703560725883e+01 1.415015954552e+01
Ar 1.347553958253e+01 1.500148902731e+01 7.679538739486e+00
Ar 1.647122771443e+01 2.212258493661e+00 1.233110689662e+01
Ar 5.068392257182e+00 6.082203611418e+00 2.073831875728e+00
Ar 1.091046288650e+01 9.430474688974e+00 1.625105974009e+01
Ar 1.753503845440e+01 9.596564197667e+00 8.772175285881e+00
Ar 1.350024634178e+01 1.605960035837e+01 8.755624668758e+00
Ar 5.249655288385e+00 9.863068680760e+00 5.780316987832e+00
Ar 9.741729762601e+00 1.548975376071e+01 1.811542147865e+01
Ar 8.250629836189e+00 1.585750777370e+01 8.775537310309e-01
Ar 1.266252750264e+01 7.834456371522e+00 8.565644220730e+00
Ar 7.135728284546e+00 9.940374903698e+00 1.525415786148e+01
Ar 6.348597305202e+00 3.229772729307e+00 1.342490015059e+01
Ar 1.115204265556e+00 1.406872197906e+01 1.719035695865e+01
Ar 1.591976731086e+01 6.020862411261e+00 2.516902284493e+00
Ar 1.161683527826e+01 1.250696412438e+01 1.028098828749e+01
Ar 4.580400398398e+00 9.842267645080e+00 1.674626904364e+01
Ar 1.760779865906e+01 5.724799618321e+00 1.273788662347e+01
Ar 1.557144366756e+00 1.337877131011e+01 1.107551999637e+01
Ar 1.585954316138e+01 1.085995543465e+01 7.922436454643e+00
Ar 1.323994844373e+01 7.517953420624e+00 1.464175103495e+01
Ar 1.428980512584e+01 1.261821448735e+01 1.617044658594e+00
Ar 2.254943839913e+00 1.520612251437e+01 7.462268289246e-01
Ar 4.582875037073e+00 1.701872264417e+00 2.219555844519e+00
Ar 5.281458375007e+00 7.808554431582e+00 3.110984013438e+00
Ar 3.210850774369e+00 7.211158154159e+00 3.686746425818e+00
Ar 1.097356057364e+01 1.050599819755e+01 1.816164786379e+01
Ar 1.047882739571e+01 9.575845671707e+00 7.678482814132e+00
Ar 1.242629640351e+01 1.844813542334e+00 4.038951498871e+00
Ar 5.061906530232e+00 2.177191490207e+00 6.456533694046e+00
Ar 1.840057067805e+01 4.140471639115e+00 5.974600664530e+00
Ar 2.569169563935e+00 1.078524408228e+01 1.605172969675e+01
Ar 1.203292361475e+01 5.821722402580e+00 6.344854787225e+00
Ar 8.811298161058e+00 8.193645211634e+00 4.538475316705e+00
Ar 1.142036171238e+01 1.173238023100e+01 7.307990264309e+00
Ar 3.856332684753e-02 1.184140429116e+01 1.430495329386e+01
Ar 1.908762965073e+00 9.270815518449e-01 3.399061940460e+00
Ar 2.035594742879e+00 7.958155120692e+00 1.473133364101e+01
Ar 6.795726152737e+00 1.387759810389e+01 1.430846859922e+00
Ar 8.603179735147e+00 1.540466216300e+01 6.403028761165e+00
Ar 6.064751078130e+00 6.372835089904e+00 1.593966654860e+01
Ar 1.430253496904e+01 6.001710979610e+00 4.232574034023e+00
Ar 2.670981183434e+00 6.179877342354e+00 4.385672678845e+00
Ar 6.663733209797e+00 3.837429864374e+00 2.531023072346e+00
Ar 7.897079558961e+00 8.223934018730e+00 7.111027134320e+00
Ar 7.681693821925e+00 6.919288744017e+00 1.649520554543e+01
Ar 1.215624416407e+01 2.785199414055e+00 3.568036645822e+00
Ar 2.506852448729e+00 1.779129472998e+01 5.741038904036e+00
Ar 6.221019679537e+00 8.968842901194e+00 2.833053555081e+00
Ar 1.185718277972e+01 3.095401599675e-01 6.181484253933e+00
Ar 6.529789970720e+00 3.625509154143e+00 6.246873836041e+00
Ar 7.159942914745e+00 1.408223069761e+01 3.558580022676e-01
Ar 3.354027173618e-01 2.222743519846e-01 1.167289703164e+01
Ar 1.027775041694e+01 1.482078469607e+01 8.702093760145e+00
Ar 1.679669445815e+01 3.336475719820e+00 8.336577723433e+00
Ar 9.708264648586e+00 9.045491902416e+00 1.199875577270e+01
Ar 3.601508270302e+00 5.591911855998e+00 7.319821922381e+00
Ar 1.732611774505e+00 2.076417024598e+00 1.173250912795e+01
Ar 5.441954849563e+00 1.256484427028e+01 8.500137186958e+00
Ar 1.197920271169e+01 1.748392986761e+01 5.022770167504e+00
Ar 1.432787182445e+01 8.672705257943e+00 4.436332167781e+00
Ar 9.454705087156e-01 6.403605177852e+00 6.656809382944e+00
Ar 1.132848440980e+01 7.168740441325e+00 1.389082276129e+01
Ar 4.791689929356e+00 2.468673576317e+00 5.084132752536e+00
Ar 1.986492628185e-02 1.240606882912e+01 1.071983821903e+01
Ar 1.875481410136e+00 2.055604466209e+00 1.582812744465e+01
Ar 1.110312414032e+01 1.496795501999e+01 1.378257434395e+01
Ar 4.417448531356e+00 1.093629812273e+01 1.349921352550e+01
Ar 1.131093784483e+01 1.250679926389e+01 1.402016027781e+00
Ar 8.211365035892e+00 5.813608984623e+00 1.738274295724e+01
Ar 5.889974405108e+00 1.485732629776e+01 5.676530764513e+00
Ar 1.550960891711e+01 1.196939414167e+01 4.987001413035e-01
Ar 6.919192418890e-01 1.185853370105e+01 2.860081995641e+00
Ar 3.110118067679e+00 1.792750392400e+01 1.604864292280e+01
Ar 8.175067294275e+00 1.541280143657e+01 1.461264222060e+01
Ar 1.560976875235e+01 1.441754965048e+01 1.713704357017e+01
Ar 1.502477934746e+01 1.831882776765e+01 6.928304813610e+00
Ar 6.378950841510e+00 1.682720609263e+01 1.873065723299e+00
Ar 1.218949360360e+01 4.897477139216e+00 9.983398922291e+00
Ar 2.351817101295e+00 6.367211678545e+00 7.336900423112e+00
Ar 1.399503220758e+01 1.387038030351e+01 1.657065196405e+00
Ar 8.718544299256e+00 1.320004486528e+01 1.170976319248e+01
Ar 1.579364536744e+01 1.153401318988e+01 1.739069085459e+01
Ar 4.883065816184e+00 1.445228065125e+01 1.787192676863e+00
Ar 1.270896360126e+01 1.064314315876e+01 1.319091016167e+01
Ar 1.048201664855e+01 2.174345635327e+00 1.654117497400e+01
Ar 1.679389946693e+01 1.639148738044e+01 1.645841930992e+01
Ar 1.293776996905e+01 5.316220250771e+00 7.900330342153e+00
Ar 1.630308065253e+01 6.014238331062e+00 1.187795226401e+01
Ar 5.191750993264e+00 3.085511693904e+00 8.745495023812e+00
Ar 2.111841521670e-01 1.113901953064e+01 1.175918465207e+01
Ar 7.106687800995e+00 8.946862731031e+00 1.292238918797e+01
Ar 3.609468116323e+00 1.724267488550e+01 1.283801541179e+00
Ar 5.528785159194e+00 1.204857495232e+01 1.328949600224e+01
Ar 6.890414257585e+00 1.737875676298e+01 1.344331193005e+01
Ar 1.449904747481e+01 1.373646257409e+01 1.518701759941e+01
Ar 9.736969865134e+00 8.974463238581e+00 4.178760408153e+00
Ar 8.508412009554e-01 7.533815707975e+00 1.203965332017e+01
Ar 1.910817871090e+00 1.512164860277e+01 8.348687221755e+00
Ar 1.208676556357e-01 1.764488839229e+01 3.491655989426e-01
Ar 1.559406768556e+01 1.617627498833e+01 1.609782655818e+00
Ar 5.625821147701e+00 1.078277315429e+01 2.328784120349e+00
Ar 7.903786358745e+00 1.423146717672e+01 9.984825621760e+00
Ar 1.108363232876e+01 1.790693047625e+01 4.395341794177e+00
Ar 9.315939202231e+00 1.194987274019e+00 4.841419843186e+00
Ar 1.537480438548e+01 7.034021661181e-01 1.609396710222e+01
Ar 1.018005542890e+01 1.701993949114e+01 1.601294140723e+01
Ar 1.796513086748e+01 9.113886546874e+00 1.121043264803e+01
Ar 1.470992911970e+00 2.931356072361e+00 1.397844830016e+01
Ar 2.966638277775e+00 1.700823804009e+01 2.114035430927e+00
Ar 2.716755003133e+00 2.269855928293e+00 1.678513510202e+01
Ar 4.468376350838e+00 1.599960194517e+01 6.522186298418e+00
Ar 3.151280636791e+00 1.794314293797e+01 6.677939467495e+00
Ar 6.633012977887e+00 9.889665549562e-01 4.612858089059e+00
Ar 1.383447133941e+01 1.421070757537e+01 5.581025877775e+00
Ar 9.834362234140e+00 1.226149729804e+01 1.588487264367e+01
Ar 4.513245173583e+00 1.348024782335e+01 7.049473998617e+00
Ar 1.795623780715e+01 1.471193221869e+01 4.650210309467e-01
Ar 1.134907362120e+01 9.092084349431e+00 1.491326809806e+01
Ar 1.214860126280e+01 1.677872358960e+01 1.020566531272e+01
Ar 1.384621836875e+01 6.489210103204e+00 1.252057474070e+01
Ar 3.089299130847e-01 5.608862103669e+00 4.529090800930e+00
Ar 1.712721604625e+01 9.878863068525e+00 1.463776341543e+01
Ar 1.830654821538e+01 1.502886757503e+01 8.118691939545e+00
Ar 8.955982034490e+00 3.409330424014e+00 1.061181044612e+01
Ar 1.072166919014e+01 1.374561246804e+01 1.192444657611e+01
Ar 1.735961246250e+01 1.205742467219e+01 1.629674890937e+01
Ar 9.792042242215e+00 6.069762378912e+00 5.403652553614e+00
Ar 8.412504199831e+00 4.667235683505e-01 3.532465219799e+00
Ar 2.258218226760e+00 9.056752342168e+00 1.381959956000e+01
Ar 8.812309321303e+00 1.298643577838e+01 1.526526961676e+01
Ar 1.545853091286e+01 6.622424303687e+00 1.075328736647e+01
Ar 1.550662540594e+01 6.507670451167e+00 1.286179808309e+01
Ar 1.135990493541e+01 1.371082133978e+01 1.389197560246e+01
Ar 1.652463036859e+00 7.374447682761e+00 3.906908035597e+00
Ar 1.257895445706e+01 1.012996112353e+01 8.867062140153e+00
Ar 1.276550871023e+01 7.893847483438e+00 1.628344781914e+00
Ar 1.114789309137e+01 1.549751868320e+01 6.338778916436e+00
Ar 1.566604936983e+01 1.224087832135e+01 1.598102257956e+01
Ar 4.141894570609e+00 1.826884626915e+01 6.294532508559e+00
Ar 6.324880084789e+00 6.668401409229e+00 1.429554323120e+01
Ar 1.062817135917e+01 3.604186857600e+00 1.426372302159e+01
Ar 1.425983749217e+01 7.314328943024e+00 1.127952410366e+01
Ar 7.707492405055e+00 4.589867697161e+00 1.249348277378e+01
Ar 8.183961975481e-01 1.679237279217e+01 6.437999557631e-01
Ar 4.201223124131e-01 1.810556869946e+01 3.470072050795e+00
Ar 1.562612792511e+01 5.786874287921e+00 1.582958460583e+01
Ar 1.337117266609e+01 9.321045320544e+00 5.207462827137e+00
Ar 5.905142899127e+00 5.545448882283e+00 9.683954810737e+00
Ar 1.746765419207e+01 6.096988533036e+00 6.330285340998e+00
Ar 1.537623988304e+01 1.568175348635e+01 3.163119304163e-01
Ar 8.602893205506e+00 9.402954570068e+00 1.294722568326e+01
Ar 1.730438383172e+01 1.150395883487e+01 1.473532283209e+00
Ar 8.432344698346e+00 1.658449901766e+01 2.569252096432e-01
Ar 4.451010921028e+00 8.091489710458e+00 1.798417557314e-01
Ar 1.452428457731e+01 1.187618761680e+01 6.344454937992e+00
Ar 9.015931324458e+00 1.025281062166e+01 2.439116365883e+00
Ar 1.218668845167e+01 4.624742621940e+00 1.148256155376e+01
Ar 1.632686701038e+01 1.551294911616e+00 1.087783921549e+01
Ar 5.095558026966e+00 1.253990540211e+01 4.883088068193e+00
Ar 1.589778259985e+01 8.919574661383e+00 4.209878161519e+00
Ar 1.098876416091e+01 2.705136602276e+00 1.137556874222e+01
Ar 1.305005927115e+01 9.942824887171e+00 1.618804567310e+01
Ar 1.594344538741e+01 1.038730922985e+01 1.834918313831e+01
Ar 3.207312891141e+00 1.665635139701e+00 2.982476403311e+00
Ar 7.182380237118e+00 7.691076449912e-01 1.679916711684e+01
Ar 4.935070052624e+00 1.037657986723e+01 7.166729172415e+00
Ar 4.465800913927e+00 3.926270326933e+00 1.825576624094e+01
Ar 7.534008183278e+00 1.635269407826e+01 1.458942539211e+01
Ar 3.202618794265e+00 7.747014328449e+00 4.663540025400e+00
Ar 1.328752969674e+01 1.566941948203e+01 6.855739229772e+00
Ar 1.453182994951e+01 5.054917810951e+00 3.255882577710e-01
Ar 1.038984247730e+01 7.103427335373e-01 4.319341076372e+00
Ar 1.435049022552e+01 5.109364526875e+00 1.322269263303e+01
Ar 6.478498947780e+00 1.026225963504e+01 1.669276290869e+00
Ar 2.164695420336e+00 4.265364531707e+00 6.314734283648e+00
Ar 2.538900244249e+00 1.072276944791e+01 1.189723095201e+01
Ar 1.337440337436e+00 7.048596894998e+00 1.467572281003e+01
Ar 1.553556546340e+01 8.988980959859e+00 1.220575660431e+01
Ar 1.500070043242e+01 7.336127753159e+00 1.227755917303e+01
Ar 1.548486081397e+01 4.722780019056e+00 6.446174680077e+00
Ar 2.149522742618e+00 1.427596946326e+01 1.495456190202e+01
Ar 1.829706513324e+01 1.035157665651e+00 1.664996092031e+01
Ar 1.193707491005e+01 3.168087701293e+00 1.190434512350e+01
Ar 1.575940618785e+01 5.610873250292e+00 7.328223139695e+00
Ar 1.241796937169e+01 1.796067557646e+01 2.616348332400e+00
Ar 1.821368053981e+00 3.899644364695e+00 1.324222648456e+01
Ar 1.111739676392e+01 9.672026855645e+00 1.293303061375e+01
Ar 6.397149160670e+00 1.254187083923e+01 1.147673197758e+01
Ar 3.774765929903e+00 8.843773452533e+00 3.979430696729e+00
Ar 7.616502763418e+00 9.675475081455e+00 1.657556319469e+01
Ar 3.316741934504e+00 7.028085558831e+00 1.819695721464e+01
Ar 6.677004559743e+00 2.860177738417e-01 1.281457459559e+01
Ar 1.539815768905e+01 1.051630957614e+01 1.754535524608e+01
Ar 2.804885353179e+00 1.801163645331e+01 8.894120875620e+00
Ar 1.312803606998e+01 4.939937455000e+00 1.395154492967e+01
Ar 1.358247576009e+01 9.986519740356e-01 9.290057978582e+00
Ar 1.730392593948e+01 7.254162133011e+00 6.829737936398e+00
Ar 1.780283481502e+01 1.774886963078e+01 1.695235947596e+01
Ar 7.481499270269e-01 1.068842693044e+01 1.707799103787e+00
Ar 1.242573142413e+01 2.433606138051e-01 1.101925539032e+01
Ar 1.175100735168e-01 2.024516379842e+00 6.794829659647e+00
Ar 1.235187811859e+01 2.191143140444e+00 1.774357123584e+01
Ar 4.859943977257e+00 1.505041400634e+01 1.313225452349e+01
Ar 1.765424399303e+01 2.352253185300e+00 1.333489540442e+01
Ar 1.599477191889e+00 6.018011619141e+00 1.196450160898e+01
Ar 8.927607653591e+00 6.623964304953e+00 1.670879879810e+01
Ar 1.076093372577e+01 6.614834010375e+00 6.684604535146e+00
Ar 4.239674414131e+00 1.200521925649e+01 1.009799669731e+01
Ar 1.248086175092e+01 6.711335466640e+00 1.012021134353e+01
Ar 1.652619391684e+01 2.538455450270e+00 3.992117070927e+00
Ar 1.614123845395e+01 5.949629490752e+00 4.061110528653e+00
Ar 1.393945623387e+01 1.653887313132e+01 6.065137753265e+00
Ar 1.033594353692e+01 1.809189309881e+01 6.568201883433e+00
Ar 1.246685354584e+01 6.063588386940e+00 8.737839068300e+00
Ar 1.628605018386e+01 1.094926833467e+01 6.021192317679e+00
Ar 6.453172610637e+00 7.922539328265e+00 1.833732095326e+01
Ar 4.188994345725e+00 1.506003782131e+01 5.962188006084e+00
Ar 1.380332025048e+01 1.599650940969e+01 1.635600636764e+01
Ar 7.462136486519e+00 1.819560027699e+01 1.709604139307e+01
Ar 1.565009389838e+01 6.316693024453e+00 1.675891745884e+01
Ar 1.034468569245e+01 1.842801998627e+01 2.319951312244e+00
Ar 4.293310335932e+00 6.235939585952e+00 1.241432776238e+01
Ar 1.084248197986e+01 2.934220798549e-01 1.442560184642e+01
Ar 1.291364262891e+01 1.837413261064e+01 1.305523819632e+01
Ar 1.615274438767e+01 4.756451914591e+00 1.803474794375e+00
Ar 5.164696433145e+00 4.663822521058e+00 9.389915809188e+00
Ar 4.730909864009e+00 8.094079837554e+00 6.357006717384e+00
Ar 8.215156235148e+00 6.574486335772e+00 1.181484167715e+01
Ar 9.372221323257e+00 7.984389688815e+00 7.923829444243e+00
Ar 1.326854452687e+01 7.894334866840e+00 4.743696673298e-01
Ar 2.189571538754e+00 6.142518949196e+00 1.797078043853e+01
Ar 3.812932394202e+00 2.004836213212e+00 1.072341302025e+01
Ar 5.366284975803e+00 1.121937649771e+01 1.251954732224e+01
Ar 2.141023935334e+00 1.586133323921e+01 2.169072965616e+00
Ar 1.691692755796e+01 1.030005806851e+01 1.284478418414e+01
Ar 1.220054323700e+01 1.394912907449e+01 1.560282161754e+01
Ar 7.799819074122e+00 9.004859683986e+00 1.369515801766e+01
Ar 1.664669028178e+01 4.837232065154e+00 7.012494081885e+00
Ar 1.121432873651e+01 1.419053069489e+01 1.282955420050e+01
Ar 6.969449601074e+00 4.978895360748e+00 1.026002927420e+01
Ar 1.724562488881e+01 1.637643249926e+01 1.181606861438e+01
Ar 3.919586001161e-01 8.539796324187e+00 1.829319461639e+01
Ar 6.195888090294e+00 5.538277694516e-01 2.538352537134e+00
Ar 1.571037999192e+01 1.233027463518e+01 1.922347502734e+00
Ar 7.907775821667e+00 1.481156758162e+01 8.623478946985e+00
Ar 4.106201274927e+00 9.891808039488e+00 1.017855872911e+00
Ar 3.226225461371e+00 5.422517166577e+00 1.780873081505e+01
Ar 2.835381240779e-01 7.125454049126e+00 1.479163418707e+01
Ar 1.522112858733e+01 1.133776977736e+01 1.448606615816e+00
Ar 1.254160305458e+00 1.336737965693e+01 1.614615673076e+01
Ar 1.910166339418e+00 1.228049731579e+01 2.306362794638e+00
Ar 2.789063394262e+00 1.582787528732e+01 4.765063168355e+00
Ar 8.537948822333e-01 1.543465238733e+01 1.723419907732e+01
Ar 2.606420806555e+00 6.514756995702e+00 2.635537663161e+00
Ar 3.738186580787e-02 1.017835854069e+01 1.363933351533e+01
Ar 1.417333726067e+01 1.722643399514e+01 7.718582974705e+00
Ar 1.426678381777e+01 1.065608573377e+01 7.743451100356e-02
Ar 8.353058280826e+00 1.148587743080e+01 3.590228469267e+00
Ar 1.000285611558e+01 1.726188245840e+01 1.710856731892e+01
Ar 1.296007439670e+01 6.200458293142e+00 1.806735151653e+01
Ar 1.715772492282e+01 1.678101772985e+01 3.440987976116e+00
Ar 3.002701597232e+00 1.065493677928e+01 1.033144817204e+01
Ar 3.639271987642e+00 1.246397295277e+01 4.495432109949e+00
Ar 1.824323049436e+01 6.550830290496e+00 4.699711604386e+00
Ar 1.052435547876e+01 9.771408444964e+00 7.733628968044e-01
Ar 1.100191900802e+01 1.482706319277e+01 1.151144970856e+01
Ar 9.531425886725e+00 1.063656250727e+01 1.038293312632e+01
Ar 5.101501370658e-01 1.065313795782e+01 6.644053872077e+00
Ar 1.431097807089e+00 1.548376288506e+01 1.612481951432e+01
Ar 1.621159462750e+01 1.781437986667e+01 8.347895503927e+00
Ar 1.071261312073e+01 9.434149038782e+00 1.382777494152e+01
Ar 1.137490751400e+01 9.683636974688e+00 1.792620024777e-01
Ar 1.605057648968e+00 1.207985425039e+01 4.383329329930e+00
Ar 1.513808212828e+01 1.287992235334e+01 1.451543743361e+01
Ar 1.194731117656e+01 2.985736560382e+00 9.991025452772e+00
Ar 1.273030381155e+01 1.432627385746e+01 6.262592785250e+00
Ar 1.184777617901e+00 1.273954319283e+01 7.749139422320e+00
Ar 1.177993905250e+01 1.514239352907e+01 1.796956646443e+01
Ar 1.211078531600e+01 1.528436139342e+01 1.172114251945e+01
Ar 1.183789166194e+01 1.529976252839e+01 8.345852381462e-01
Ar 1.390945617602e+01 1.382709615713e+01 7.582705445535e+00
Ar 1.554403072358e+01 1.294371963690e+01 6.367611961780e+00
Ar 7.904631444057e+00 1.030855981748e+01 3.741075421027e+00
Ar 1.343640199489e+01 2.417623568966e-01 1.131490417732e+01
Ar 1.265577496371e+01 8.617079473874e+00 1.298513841165e+01
Ar 5.316987962938e+00 1.189402930747e+01 9.230355860601e+00
Ar 6.069443584876e+00 5.262388529183e+00 2.875628477521e-01
Ar 1.645293537762e+01 1.734010774497e+01 1.600005994721e+00
Ar 1.448900756206e+01 4.846730808289e+00 4.586290087741e+00
Ar 1.289834153745e+01 1.049823151561e+00 1.390607764532e+01
Ar 1.372546082421e+01 3.259926911983e+00 1.836231855283e+01
