343
L = 18.0784557462
Ar 1.406268875697e+01 3.733070851235e+00 1.266713963253e+00
Ar 5.082022948035e+00 2.856796839322e+00 1.356300099078e+00
Ar 3.088563036157e+00 8.024056929436e+00 1.572691751165e+01
Ar 1.807285122056e+00 5.697000168288e+00 1.571768910570e+01
Ar 2.606150240389e+00 7.730701223052e+00 3.867506872339e+00
Ar 1.428452695802e+01 8.436011540712e+00 9.673465943569e+00
Ar 2.854066545325e+00 1.220150229246e+01 1.495404328232e+01
Ar 7.040227526802e+00 4.648874928280e-01 1.271111656159e+01
Ar 6.093159372194e+00 1.625652277267e+01 4.793336350836e+00
Ar 2.280683202837e+00 1.807146579426e+00 7.978374046604e+00
Ar 8.663840496961e+00 4.308260638727e+00 1.377613828584e+01
Ar 1.085137074381e+01 1.177129873056e+01 1.075495085051e+00
Ar 1.769931654220e+01 1.832686948365e+00 1.188170717549e+01
Ar 1.187983339107e+01 6.126833910133e+00 9.149350759416e+00
Ar 8.881429696623e+00 1.020752142702e+01 6.264730345502e+00
Ar 1.294166953858e+01 1.596961482423e+01 1.510737767663e+01
Ar 1.080857279936e+01 1.657957023180e+01 9.210538511609e+00
Ar 1.739078484967e+00 1.614121274102e+01 1.430027542708e+01
Ar 4.082038280147e+00 1.559833345627e+01 1.251892800789e+01
Ar 9.343332355373e+00 1.610077542377e+01 1.294895466681e+00
Ar 1.749589788125e+01 1.252669802431e+01 8.368251123620e+00
Ar 1.463523147670e+01 5.188441656144e+00 1.461651572495e+01
Ar 1.159133473281e+01 8.819575128643e+00 5.048766890471e+00
Ar 2.294347589237e-01 2.438085995479e+00 1.289789973654e+01
Ar 8.897700235755e+00 1.120078847647e+01 1.590250148007e+01
Ar 1.383847703439e+01 1.263990595875e+01 1.731361720980e+01
Ar 7.538013397731e+00 1.029781270049e+01 1.113624700990e+01
Ar 1.137174825310e+01 1.250645447319e+01 1.124601745498e+01
Ar 1.576236089744e+00 1.090018352694e+01 1.791969867872e+01
Ar 1.224935307185e+01 1.099817820079e+01 3.556426743858e+00
Ar 1.702236733303e+01 8.849530752783e-02 1.120504799611e+00
Ar 4.507531423003e+00 1.842785971325e+00 6.921108198605e+00
Ar 1.054088575592e+01 1.194284364508e+00 1.369546582195e+01
Ar 1.371430282830e+01 9.838600032313e+00 1.735699003420e+01
Ar 3.336895073780e+00 4.915926202322e+00 7.257794495924e+00
Ar 6.124072385743e+00 1.014790498379e+01 1.506934145457e+01
Ar 1.300379612108e+01 1.056360010706e+01 1.944250366032e+00
Ar 2.938582724748e+00 1.769412240233e+01 1.614309861341e+01
Ar 6.986800635627e+00 3.083950236131e+00 1.380880817401e+01
Ar 3.111631987427e+00 1.651026020977e+01 2.297549454977e+00
Ar 2.541588415642e+00 2.553236793498e+00 1.553756021517e+01
Ar 1.031981013644e+00 1.483782418927e+00 1.684770973884e+01
Ar 2.980227937188e+00 1.122921790465e+01 4.645419829300e+00
Ar 1.732111361603e+00 2.087873756469e+00 6.408388289696e-01
Ar 9.040444504298e+00 1.423157381449e+01 9.737728575371e+00
Ar 7.809253195411e+00 1.565238292959e+01 3.629386758127e+00
Ar 1.591838448791e+01 7.556842764750e+00 1.619505469399e+01
Ar 1.552003472192e+01 6.656792354279e+00 1.807275189511e+00
Ar 1.703000972924e+01 1.704059389023e+00 4.741735105286e+00
Ar 8.479124290191e+00 1.488399028203e+01 6.273309006176e-01
Ar 5.217917447183e+00 1.041166426537e+01 4.158440660212e+00
Ar 7.083688925457e+00 1.634930503564e+01 5.601691942492e+00
Ar 3.802219643133e+00 1.287389806808e+01 6.612865328071e+00
Ar 4.597915680307e+00 1.311601926776e+01 1.240635350647e+01
Ar 5.793134011843e+00 1.180850566667e+01 6.473266835520e+00
Ar 1.773692584576e+01 6.294956572582e+00 1.563512957031e+01
Ar 1.092431438267e+01 5.743508107467e+00 5.208044478694e+00
Ar 1.222039335124e+01 7.784552438077e+00 3.588792873086e-01
Ar 5.615897651762e+00 1.675412986610e+01 2.810848201864e+00
Ar 3.034480289421e+00 1.481820547635e+01 1.295127167039e+01
Ar 2.555908289970e+00 9.388722026303e+00 4.222700153108e+00
Ar 9.328716060274e+00 1.423243194776e+01 3.824562635275e+00
Ar 8.458233373094e+00 1.210025858045e+01 1.469029975197e+01
Ar 7.544247935357e+00 3.087485165825e+00 1.736157611092e+01
Ar 1.762335007353e+01 6.400509607058e+00 1.134225604187e+01
Ar 1.149238905517e+01 1.326641723719e+01 1.466897788200e+01
Ar 1.224773481033e+01 1.534671483910e+01 4.736974673441e+00
Ar 2.513184641882e+00 1.002913879882e+01 1.031698341262e+01
Ar 1.472335577338e+01 1.355223584737e+00 5.409008380428e+00
Ar 1.147786980749e+00 1.147661123082e+01 1.708543275458e+01
Ar 6.528915871765e+00 6.592381014781e+00 1.000065507706e+01
Ar 2.663400837542e+00 7.213805775172e+00 1.632395510614e+01
Ar 1.660401648696e+01 1.530813612859e+01 1.129310212584e+01
Ar 4.273366259465e+00 6.429143549274e+00 1.039449495933e+01
Ar 1.568112200233e+01 1.162098552145e+00 4.643596059778e+00
Ar 5.570806343090e+00 4.947487563633e+00 7.627609738162e+00
Ar 1.182622159197e+01 1.160643570018e+01 1.605560338236e+01
Ar 1.130479797911e+01 6.016421980887e+00 3.032908651049e+00
Ar 1.558540250975e+01 8.289718352745e+00 1.997145868991e+00
Ar 6.360404163978e+00 1.017057006627e+01 1.239941317207e+01
Ar 8.487201278439e+00 1.201891079146e+00 1.378377789119e+01
Ar 7.491391099880e+00 1.667268421968e+01 1.150170631334e+01
Ar 4.154715594750e+00 8.262715584706e+00 1.571226415030e+01
Ar 1.443012054523e+01 7.166327724174e+00 9.420673665222e+00
Ar 1.597446387828e+01 8.737452154730e+00 7.287138570012e+00
Ar 1.061991874835e+01 1.461508772280e+01 1.440314085313e+01
Ar 5.207332426239e+00 8.804859620534e+00 7.998869981150e+00
Ar 9.376620936621e+00 1.511800205968e+01 4.953613162862e+00
Ar 4.171185973745e+00 1.432625383318e+01 2.547295185216e+00
Ar 1.037034913959e+01 1.565008744462e+01 1.440566539812e+01
Ar 1.380938943347e+01 1.778188397510e+00 1.801296595939e+00
Ar 1.727090047440e+01 5.484361441543e+00 1.454544307318e+01
Ar 1.690016897366e+01 5.851408253607e+00 2.354335707247e+00
Ar 1.118965139276e+01 1.959093005777e+00 1.100552749969e+01
Ar 3.087280164479e+00 1.552440318193e+01 1.650905226711e+01
Ar 7.009461258883e+00 1.748073986676e+01 6.185171481888e-03
Ar 1.660780898667e+00 1.162812749706e+01 1.182529426815e+01
Ar 9.459027947915e-01 3.428361783476e+00 1.328608686230e+01
Ar 1.231944038646e+00 1.229192739416e+01 1.375722752555e+01
Ar 5.151340538044e+00 3.670951710880e+00 5.034744383132e+00
Ar 1.975068169378e+00 1.383868302321e+01 1.311876951929e+01
Ar 1.696680677929e+00 6.000549946518e+00 1.295933414838e+01
Ar 1.019163279217e+01 1.726466557732e+00 8.383446918094e-01
Ar 1.537562118555e+01 4.645532810925e+00 4.388037577452e+00
Ar 2.525633760615e+00 1.108766774877e+01 2.303519564067e+00
Ar 1.013658578489e+00 1.423138044314e+01 1.271960117640e+01
Ar 1.798040136474e+01 8.772843460246e+00 7.600726912961e+00
Ar 3.321111340269e+00 7.252270726223e+00 9.140464924413e+00
Ar 1.365362945505e+01 7.190301869887e+00 1.074644562114e+01
Ar 3.050040252545e+00 1.287115959444e+01 4.088113920175e+00
Ar 1.484669084301e+01 1.335579067830e+01 7.196076411512e+00
Ar 1.382314667360e+01 4.353482878173e+00 1.450648248589e+01
Ar 6.081412142979e+00 3.183764196564e+00 2.425593538833e+00
Ar 1.508410444345e+01 1.088315020936e+01 1.129465838351e+00
Ar 1.280640369923e+01 1.046146676938e+01 1.772460042636e+01
Ar 1.007686497379e+01 6.109538138620e+00 2.389924003430e+00
Ar 1.715732432199e+01 7.284702997610e+00 5.561782898756e+00
Ar 1.637004985401e+01 1.112345569066e+01 2.650515010147e+00
Ar 8.768433110137e+00 5.653178184213e+00 1.400691376730e+01
Ar 4.177416813370e+00 1.710334223398e+01 1.029055042063e+01
Ar 8.708388473854e+00 4.539338569575e+00 1.660280395746e+01
Ar 1.240140236364e+01 9.093247305267e+00 1.683036083843e+01
Ar 7.988858718326e+00 3.838043260194e+00 2.083044068642e+00
Ar 1.640865247522e+00 1.594199046290e+01 1.033565925169e+01
Ar 1.510161065840e+01 1.398383155831e+00 3.683816941876e-01
Ar 7.363811902821e+00 3.125930813973e+00 8.259303748558e+00
Ar 1.292902610472e+01 4.128738821856e-01 8.164118658918e+00
Ar 6.973271264199e+00 1.415012813087e+01 5.491919682068e+00
Ar 5.213102126050e+00 1.570496313026e+01 1.232087898232e+01
Ar 4.122365944858e+00 1.473717305602e+01 1.650684964883e+01
Ar 7.870537292309e+00 6.598889747699e+00 9.867608664853e+00
Ar 1.961019852601e+00 1.049164896145e+01 1.244351706795e+01
Ar 6.412153910935e+00 1.197744932605e+01 4.859066904388e-01
Ar 1.269002270558e+01 6.132847952070e+00 3.959164752504e+00
Ar 1.571354476130e+01 9.362072300172e+00 1.882914498495e+00
Ar 8.193340086746e-01 1.245519128524e+01 1.009375999083e+01
Ar 7.010997041256e+00 1.940947172389e+00 3.042840099094e+00
Ar 2.187389941488e-01 8.938624945069e+00 3.921614246473e-01
Ar 1.207067654093e+01 1.772290034332e+01 5.071287633689e+00
Ar 1.033602199276e+01 1.055449607268e+01 4.778565287978e+00
Ar 1.778319112538e+00 1.349897703402e+01 8.954170806752e-01
Ar 4.753695647686e+00 8.839579251196e+00 3.937657704801e+00
Ar 2.120054179800e+00 2.790985917451e+00 8.101911079278e+00
Ar 1.653686378118e+01 1.554974638486e+01 6.293245107652e-01
Ar 1.488864413884e+00 1.998251513382e+00 9.774841287126e+00
Ar 1.266092321467e+01 1.644211414608e+01 1.671568112862e+01
Ar 1.660563793547e+00 1.232234153092e+01 6.259858064755e+00
Ar 1.777930072385e+01 1.396378801640e+01 6.505026085834e+00
Ar 1.764631861469e+01 1.678479638713e+01 1.304449218488e+01
Ar 1.574204558780e+01 1.580901855662e+01 1.383912005014e+01
Ar 1.472985326659e+01 9.319181880113e+00 9.040260421466e+00
Ar 2.102483888645e+00 1.119100170635e+01 5.318187622914e+00
Ar 8.509150770678e+00 1.049307639575e+01 1.722106287401e+01
Ar 1.770437099544e+00 1.707483873331e+00 1.107288474960e+01
Ar 7.031524174325e+00 8.703157497546e+00 1.327971580215e+01
Ar 7.691720368312e+00 1.173403016362e+01 8.274689106714e+00
Ar 7.037780536751e+00 9.608853276355e+00 3.080636303945e+00
Ar 1.740666772042e+01 1.020243444366e+01 1.318115472137e+01
Ar 3.086398116521e+00 1.553757104486e+01 8.199774180541e+00
Ar 5.419955606675e+00 1.178567323366e+01 1.420326760496e+01
Ar 8.019635453237e+00 2.074195006235e+00 7.555994287127e+00
Ar 1.721395200284e+01 5.242438607689e+00 3.226388670862e+00
Ar 8.308903979364e-01 7.064250772540e-01 1.828651367470e+00
Ar 1.767486451006e+01 1.364799989321e+01 1.327734860744e+01
Ar 7.498312585564e+00 1.454116800345e+01 7.392733834052e-01
Ar 5.679959889103e+00 9.406033330248e+00 1.679321139445e+01
Ar 2.317088169460e+00 8.992728918501e-01 7.244111524875e+00
Ar 1.679087709428e+01 9.122754851057e+00 1.523867437494e+01
Ar 1.459751993567e+01 7.805209230831e+00 1.061344291930e+01
Ar 1.466844243359e+01 7.146541732136e+00 2.575984890856e+00
Ar 4.495761532659e+00 4.572347180814e+00 5.095913427758e+00
Ar 1.193507321389e+01 5.164248634795e+00 1.207729588615e+01
Ar 3.445644414413e+00 1.820216485140e+00 1.670591559199e+01
Ar 2.317429375309e+00 1.726626235348e+01 1.091736581343e+01
Ar 6.146126488669e+00 1.474855323482e+01 8.032278623347e+00
Ar 1.327051862987e+01 2.193371672966e+00 6.146601688938e+00
Ar 2.137968475765e+00 2.862349190236e+00 1.371545539468e+01
Ar 1.012337271098e+01 4.850736207059e+00 1.619217164568e+00
Ar 1.707559246848e+01 1.161589304460e+01 3.127660285119e+00
Ar 1.747874279283e+01 3.686104202387e+00 1.799745631284e+01
Ar 9.931623879480e+00 1.012233881977e+01 1.293317720933e+01
Ar 1.450670230298e+01 4.023103183630e+00 4.644975535912e+00
Ar 1.748691904520e+01 1.422761433805e+01 1.849137882967e+00
Ar 1.552213114654e+01 3.534650597686e+00 1.738760501850e+01
Ar 1.139898853555e+00 9.343996374301e+00 1.253687441459e+00
Ar 2.456164305493e+00 1.026683675707e+01 2.991625560435e+00
Ar 4.132238962355e+00 5.485450704708e+00 1.444131942936e+01
Ar 7.092839500850e+00 7.110211031617e+00 9.404656900472e+00
Ar 1.764161922260e+00 5.243424576568e+00 2.241798365293e+00
Ar 5.905926223919e+00 1.733692088468e+01 1.149631029920e+01
Ar 6.612656610515e+00 1.229129383086e+01 1.494808954752e+01
Ar 8.472504574756e+00 1.322682222588e+01 1.335743503141e+01
Ar 1.599896785461e+01 9.649227395228e+00 4.872401945618e+00
Ar 4.700477424970e+00 1.285897668302e+01 1.162080145193e+00
Ar 4.946732213510e+00 4.869548985183e+00 1.728409750019e+01
Ar 1.108474739997e+01 8.778116395443e+00 6.069551102681e+00
Ar 3.530854921613e+00 8.879415803809e+00 3.541088211776e+00
Ar 1.374413731216e+01 2.886547587143e-01 8.856967095418e+00
Ar 7.005443558266e+00 6.751226054106e+00 1.497151087949e+01
Ar 3.770167013054e+00 4.685045776325e+00 1.139245757339e+01
Ar 1.514335690591e+01 1.399942020605e+01 1.392858440809e+01
Ar 4.200863902075e-01 5.319770313778e+00 6.256176923873e+00
Ar 2.222485559276e+00 8.337857389939e+00 6.633949758719e+00
Ar 1.230578755189e+01 6.724854238890e+00 1.283159639820e+01
Ar 1.325753588947e+01 5.886324796063e-01 2.881457119522e-01
Ar 1.515134012488e+00 1.432182590245e+01 4.658194610729e+00
Ar 6.300900367261e+00 3.640858114306e+00 1.195690698842e+01
Ar 4.473195912993e-01 1.199793291244e+01 4.215683121199e+00
Ar 6.782661246656e+00 7.737898159779e+00 1.368359175134e+01
Ar 9.447293168521e+00 1.551849801259e+01 3.709537138981e+00
Ar 7.176498058325e-01 5.619294298864e+00 1.563850892663e+01
Ar 4.438952370927e+00 7.709474780585e+00 1.014493069025e+01
Ar 2.054321633295e+00 8.155297011977e-01 6.160489191508e+00
Ar 7.838128807460e+00 1.073578897381e+01 6.196739880409e+00
Ar 6.526468256356e-01 2.038349101799e+00 1.110399115153e+01
Ar 1.987255778631e+00 3.112918035400e+00 1.048963777399e+01
Ar 1.565253806530e+01 1.007644650638e+01 9.004446325820e+00
Ar 1.786594318073e+01 5.160385458019e+00 1.361430952037e+01
Ar 1.032434653406e+01 1.479880995812e+01 1.328331220797e+01
Ar 4.667767755853e+00 1.695728986374e+01 1.800775174699e+00
Ar 6.817003283349e+00 1.569410439528e+01 5.267663035679e-01
Ar 1.224027987579e+01 1.628061330163e+01 1.786881208594e+00
Ar 6.339271033397e+00 2.640467300842e+00 3.277671613273e+00
Ar 1.802653659344e+01 9.763849812142e+00 1.724663457593e+01
Ar 7.858622172263e-01 1.639186142441e+01 1.098375388407e+01
Ar 5.974369182322e+00 1.856319118423e+00 7.029200686345e+00
Ar 2.072671903134e+00 1.044589343118e+00 9.478386509919e+00
Ar 1.377869130484e+00 3.674765370771e-01 7.511682940312e+00
Ar 7.477916033083e+00 1.288108752787e+01 2.187957871448e+00
Ar 9.747260233894e+00 1.142750262707e+01 1.163471723507e+01
Ar 1.446421884038e+01 1.646750525324e+01 6.743092702684e+00
Ar 4.772802233654e+00 4.001339719084e+00 1.464495902348e+01
Ar 1.750793995391e+01 6.758413599555e+00 9.501532251248e+00
Ar 1.187928784505e+01 1.145477216587e+00 8.690857755365e+00
Ar 1.691521232038e+01 1.092837558803e+01 1.650290348862e-01
Ar 1.420398608965e+00 3.152781403591e+00 1.583982234910e+01
Ar 1.915894240762e+00 1.040961405615e+01 6.376695386638e+00
Ar 9.209769781171e+00 2.030217161938e+00 7.175907569747e+00
Ar 4.193720468747e+00 1.771581920168e+01 1.604860569462e+01
Ar 6.575458636819e+00 3.150931370352e+00 1.805774975990e+01
Ar 2.767407945008e+00 1.339264921546e+01 1.432193418960e+01
Ar 1.244450910928e+01 9.440621596233e+00 5.746779024734e+00
Ar 5.210899833636e+00 1.633539877905e+01 1.046183219744e-01
Ar 1.914247244070e+00 6.436195816944e+00 1.667139254339e+00
Ar 3.147747676872e+00 3.831657837622e-01 1.752863686470e+01
Ar 1.160771923195e+01 2.383130963117e+00 1.362070163411e+01
Ar 6.590642201792e+00 9.462192924665e+00 1.441180804293e+01
Ar 1.418658589510e+01 1.325184428068e+01 3.907964553210e+00
Ar 1.846025872143e+00 1.042496374257e+01 1.662178068064e+01
Ar 2.961879517400e+00 1.734531002041e+01 3.630802682882e+00
Ar 1.445346952770e+01 4.371669989961e+00 2.238087663969e+00
Ar 9.657427548463e+00 1.605646137673e+01 1.509636841750e+01
Ar 5.042504139545e+00 1.047250441602e+01 5.269452019232e+00
Ar 6.316174623419e+00 3.779311214714e+00 1.695164553044e+01
Ar 2.421250170487e+00 1.015920999766e+01 5.179849905077e+00
Ar 1.119502529594e+01 9.505360751107e+00 1.697728411751e+01
Ar 6.528633894882e+00 1.489214458263e+01 2.692653561635e+00
Ar 2.562877483303e+00 2.437496747776e+00 5.098343875009e+00
Ar 1.061898799243e+01 1.072812396667e+01 1.340368764459e+01
Ar 1.572179190624e+01 1.168729136693e+01 8.275995578563e+00
Ar 1.391505089240e+01 1.754455700130e+01 1.395519301952e+01
Ar 9.605583485421e+00 1.326740643317e+01 1.182633796789e+01
Ar 1.229811147491e+00 3.822297425594e+00 1.443700786221e+01
Ar 6.416542289262e+00 1.313765601897e+01 1.586196599459e+00
Ar 1.476894878722e+01 1.685637227904e+01 1.086863812729e+00
Ar 1.770660419551e-02 5.749121147967e+00 3.824050101657e+00
Ar 5.972861796744e+00 9.627839870479e+00 3.920944720434e+00
Ar 3.079046562665e+00 1.038886469163e+01 1.162386747515e+01
Ar 5.094110197891e+00 1.381671274622e+01 1.937719160417e+00
Ar 1.825916704056e+00 1.192865259076e+01 1.151499791608e+00
Ar 1.145855777222e+01 1.661951295522e+01 1.189719191214e+01
Ar 3.249091351661e+00 1.017524686345e+01 6.024165158402e+00
Ar 5.799056719037e+00 1.694494017959e+01 7.311315155449e+00
Ar 7.895775305847e+00 1.462813075726e+01 9.481090973891e+00
Ar 1.074494206167e+01 1.530612973347e+01 1.240424067947e+01
Ar 2.159853098366e+00 5.853132224686e+00 1.681756359877e+01
Ar 1.010673707834e+01 1.061819599297e+00 2.795459979455e+00
Ar 5.327498973393e+00 1.481352888100e+01 1.588443639774e+01
Ar 6.168451772859e+00 8.493920803748e+00 1.195128399725e+01
Ar 1.037708363626e+01 1.415764993069e+01 4.715550076477e+00
Ar 8.509628838350e+00 1.303609706154e+01 1.190196619877e+01
Ar 1.121027986804e+01 2.015039955449e+00 4.362607126027e+00
Ar 1.146042469032e+01 1.641269441491e+00 1.286164431562e+00
Ar 6.215918875653e+00 1.361224888253e+01 8.727812719577e+00
Ar 5.593088453118e+00 8.139328919778e+00 1.106075248679e+00
Ar 1.536524123571e+01 6.794593227605e+00 9.850425397689e+00
Ar 1.711986144697e+01 1.433025029869e+01 1.738978749264e+01
Ar 1.414105371004e+01 6.723441866508e+00 7.883265757553e+00
Ar 9.081884451443e-01 6.401549647144e+00 4.969946510840e+00
Ar 1.070607942592e+01 1.609413827650e+01 1.739390393441e+01
Ar 7.373051718524e+00 8.092902643465e+00 1.468943660933e+01
Ar 2.746352921238e+00 1.173811173121e+01 3.359990160094e+00
Ar 3.235552689104e+00 1.309437126706e+01 1.629992169246e+01
Ar 4.164385138376e+00 6.453422379553e+00 1.277717321498e+01
Ar 1.416669009573e+01 1.244175242625e+01 5.799071630007e+00
Ar 1.687539817564e+00 1.564423257996e+01 5.124177825982e+00
Ar 1.385808538137e+01 1.396979037050e+01 6.757286394762e+00
Ar 1.156044105016e+00 1.753835558609e+01 8.858768782551e+00
Ar 6.571797596597e+00 1.011209922053e+01 1.108172517574e+01
Ar 7.793504803611e+00 1.186975759038e+01 8.454172475383e-01
Ar 9.643838942853e+00 1.022259767448e+01 1.578022646511e+01
Ar 1.191261070380e+01 1.637313728234e+01 3.031525561905e+00
Ar 3.790977961653e+00 6.078591756103e+00 4.228718289933e+00
Ar 1.071964078213e+01 1.062399370562e+01 6.845796162896e+00
Ar 1.012581724276e+01 2.407868232164e+00 1.384936720052e+01
Ar 1.262794168492e+00 1.698426347440e+01 1.519979060821e+01
Ar 6.365000558767e+00 1.204583887203e+01 1.385353505520e+01
Ar 1.696184636598e+01 5.984690715481e+00 1.231236229265e+01
Ar 3.661462070547e+00 1.494747142361e+01 4.222272507719e+00
Ar 8.330511035396e+00 3.559104078291e+00 4.047331074929e+00
Ar 9.180408151897e+00 7.642099115333e+00 7.712105623722e+00
Ar 1.499889434204e+00 4.558098009650e+00 1.341124106448e+01
Ar 1.006287191526e+01 1.694953493220e+01 5.988750521170e+00
Ar 9.591668484872e+00 1.048286634691e+01 1.716558027223e+01
Ar 1.454150902436e+01 1.181069502007e+01 7.004747596865e+00
Ar 6.717938605001e+00 1.621510409368e+01 1.353973600309e+01
Ar 2.469012338026e+00 1.054638952705e+01 1.484521336084e+01
Ar 1.571703587102e+01 5.927655729653e+00 3.197118009183e+00
Ar 5.859284232966e+00 1.512796011958e+01 6.977341939248e+00
Ar 5.620025218812e+00 3.863284744513e+00 8.617878414184e+00
Ar 1.624199571896e+01 3.778573951494e+00 4.409657235244e+00
Ar 1.454017923949e+01 2.741016492534e+00 1.499797964884e+01
Ar 1.207612019912e+01 1.118541010607e+01 1.041330294283e+01
Ar 1.027664297198e+01 4.670184128156e+00 1.561290324533e+01
Ar 7.812638005118e+00 1.378323325959e+00 6.756198723345e+00
Ar 1.209088488530e+01 1.177807212060e+01 1.713393068794e+01
Ar 5.925947789421e+00 1.581739994787e+01 1.526853447352e+01
Ar 1.526793875287e+01 5.887212582817e-01 1.381678467295e+01
Ar 3.484703970209e+00 1.236765903786e+00 6.544450948378e+00
Ar 1.720183823392e+01 2.737021608280e+00 1.245738416880e+01
Ar 1.782067100342e+01 1.113251597911e+01 1.214521347770e+01
Ar 1.694940189915e+00 5.087575143935e-01 1.047132266416e+01
Ar 1.283398625297e+00 1.045263951249e+01 1.322956396915e+00
Ar 2.395333359481e+00 4.026408283002e+00 1.388380908699e+01
Ar 3.525800948776e+00 1.718380534100e+01 1.207087461606e+01
Ar 3.564030140163e+00 1.111662689813e+01 3.122366113913e+00
Ar 1.282259512582e+01 3.315213154634e+00 1.708396013584e+01
Ar 4.057743608522e+00 2.542604422472e+00 7.364823879862e+00
Ar 7.284991311419e+00 2.707202776333e+00 6.754595987705e+00
Ar 4.685116117717e+00 4.527461326259e+00 9.059001378932e+00
Ar 2.525010505690e+00 1.130410381390e+01 1.096512156453e+01
Ar 4.063574944534e+00 9.659758344337e+00 5.898065525701e+00
Ar 5.826659834631e+00 5.392191448301e+00 5.602741028923e+00
