343
L = 18.8596500779
Ar 1.017274725031e+01 2.090716922068e+00 1.377486454379e+01
Ar 5.980587109081e+00 5.153807428636e+00 2.221692111142e+00
Ar 3.925044718633e+00 1.157458728871e+01 1.722790688638e+00
Ar 1.621645394190e+01 7.071211332600e+00 1.390397130052e+01
Ar 1.733282781478e+01 1.186260843776e+01 1.793660011175e+01
Ar 1.365730289226e+01 1.874902128221e+01 1.623023557311e+01
Ar 7.475789696338e+00 8.257334639405e+00 4.551347353408e+00
Ar 1.075730292163e+01 1.425046471289e+01 2.004759036604e-01
Ar 3.957220526370e+00 1.202230421788e+00 4.538193300755e+00
Ar 5.548784444312e+00 6.631917308745e+00 1.517247768400e+01
Ar 3.134206651842e+00 3.292667424957e+00 1.170604499023e+01
Ar 1.613070745057e+01 4.050493097482e+00 1.714627144329e+01
Ar 1.201478368480e+01 8.679594055340e+00 8.363859908048e+00
Ar 6.381395022928e+00 1.531301671663e+01 6.646877384093e+00
Ar 1.155919835653e+01 6.827358803643e+00 1.363072306280e+01
Ar 1.142788651061e+01 7.121118556307e+00 5.586871863527e+00
Ar 6.107477775279e-01 1.376369300387e+01 1.470793351355e+01
Ar 1.713477299368e+01 7.892041620298e+00 6.850502422061e+00
Ar 6.228953280748e+00 1.485267951523e+01 2.591060655136e+00
Ar 2.020401305231e+00 1.463581433241e+01 4.127956281409e+00
Ar 1.324672015218e+01 9.786836027141e+00 1.235330091289e+01
Ar 3.909143054248e+00 7.664106251870e+00 1.165525534732e+01
Ar 9.482672896294e+00 4.502648770002e+00 1.291788184921e+01
Ar 1.690154793324e+01 4.792624370797e+00 9.832516968819e+00
Ar 6.604609517305e+00 1.725528718813e+01 2.516974808197e+00
Ar 4.480619450772e+00 2.097174616962e+00 7.887742525162e+00
Ar 1.025145354327e+01 5.078607593477e-01 1.197533490238e+01
Ar 1.532381637753e+01 1.531498931350e+01 1.115928624672e+01
Ar 5.878529399311e+00 1.235550366024e+01 1.134252010027e+01
Ar 4.134448479550e+00 1.118194959796e+01 3.249287407970e+00
Ar 4.299075474725e+00 5.598762862695e+00 8.373759642830e+00
Ar 5.950826588730e+00 1.823888357332e+01 1.377855099257e+01
Ar 5.745366000111e+00 3.368799389654e+00 9.398909083456e-01
Ar 1.645324910307e+01 9.921626617398e+00 9.491565230753e+00
Ar 1.713205713482e+01 1.847394243576e+01 1.852128439368e+01
Ar 8.429880443347e+00 1.762888922751e+01 1.749085084815e+01
Ar 7.355571720470e+00 5.333426812251e+00 1.571771164716e+01
Ar 1.624279721161e+01 1.511794597953e+01 2.346208115825e+00
Ar 8.720361662598e+00 1.093513685905e+01 1.299188851912e+01
Ar 4.697780912900e+00 2.913514821658e+00 2.315380376363e+00
Ar 3.660287619095e+00 1.802464478371e+01 1.265732153030e+01
Ar 1.529312155418e+00 1.331898348678e+01 1.463923162595e+01
Ar 6.467109378641e+00 6.719999209111e+00 1.436175382457e+01
Ar 7.956845105039e+00 7.859407734127e+00 1.140756280881e+01
Ar 6.985027728057e+00 1.231768730652e+01 4.131255648119e+00
Ar 1.672873592297e+01 4.109723506510e+00 2.919419977060e+00
Ar 1.080435473112e+01 1.446651595181e+01 1.740195161979e+01
Ar 6.792417827337e+00 3.413457634012e+00 1.580912207579e+00
Ar 7.949661617750e+00 2.715331179192e+00 1.448480723293e+01
Ar 1.077989946380e+01 2.873822286776e+00 1.422194906547e+01
Ar 1.033421113324e+01 1.663008815299e+01 1.318891154258e+01
Ar 1.464770194780e+01 6.501972445078e+00 9.531828193244e+00
Ar 4.318066028900e+00 1.347498704374e+01 1.321686387713e+01
Ar 4.271287303495e+00 1.488559797454e+01 8.775696277869e+00
Ar 1.383134404173e+00 2.372223567881e-01 7.749131349626e+00
Ar 1.506982353356e+01 4.320937860287e-01 6.994222407284e+00
Ar 1.108766331585e+01 1.248151153072e+01 3.832773223212e+00
Ar 1.130275156364e+01 2.418150769713e-01 1.164008429812e+01
Ar 1.519902953986e+01 1.674142379376e+01 1.168728512381e+01
Ar 1.220710924039e+01 1.723677352636e+01 8.893368748946e+00
Ar 1.009957965567e+01 1.063026501381e+01 1.316017316295e+01
Ar 1.766336481830e+01 4.099688113461e+00 8.191955209705e+00
Ar 1.274372455718e+01 1.281555955094e+01 2.070146566687e+00
Ar 1.387323979219e+01 8.961524918196e+00 1.901600822000e+00
Ar 5.313448356435e-01 5.387339279333e+00 9.317379313275e+00
Ar 1.200688927663e+01 1.255098629104e+01 1.425313466002e+01
Ar 1.324385545103e+01 1.862010685865e+01 7.900701018195e+00
Ar 1.158423622896e+01 1.480179483416e+01 1.864441330333e+01
Ar 2.671765619270e+00 1.640564474748e+01 8.773962984445e-01
Ar 9.838087460013e+00 8.706599622697e+00 8.806663726590e+00
Ar 1.269823158032e+00 1.575152278046e+01 3.039818382600e-01
Ar 1.435459813411e+01 1.652179363432e+01 2.260404567278e+00
Ar 4.414230748707e+00 3.868201662919e+00 4.238064271846e-01
Ar 1.165100456450e+01 1.654674276790e+01 1.111372133943e+01
Ar 2.872117704638e+00 1.230666764720e+01 7.338523600832e-01
Ar 5.473400041283e+00 1.362105403563e+01 8.266934283093e+00
Ar 1.283398650839e+01 7.975530842959e-01 4.697224856592e+00
Ar 1.272535861867e+01 1.320091433256e+01 4.871318082160e+00
Ar 1.116413128825e+01 9.544433381708e+00 3.274520332714e+00
Ar 1.845111020194e+01 9.387001307003e+00 1.627296428537e+01
Ar 7.767801891972e+00 1.501449270972e+01 1.443167252963e+01
Ar 1.028373973810e+01 1.679277001247e+01 1.196794875430e+01
Ar 2.934417787878e+00 8.284620089731e+00 1.569800831140e+01
Ar 7.789580086091e+00 3.747716020078e+00 1.583245772620e+01
Ar 1.032641690584e+01 9.559800818841e-01 9.012703469429e+00
Ar 1.056023188602e+01 1.714315476693e+01 4.221171927804e+00
Ar 1.203008552737e+01 3.059168916198e+00 1.363440581776e+01
Ar 1.110664378642e+01 1.050900607253e+01 1.245046295482e+00
Ar 9.795518556138e+00 9.918276355073e+00 9.854936493134e+00
Ar 9.736428139015e+00 1.708991468087e+01 1.503948519452e+01
Ar 2.791118714340e+00 1.084833516542e+01 1.840551754123e+00
Ar 5.923445994580e+00 1.823573887423e+01 1.161857712366e+01
Ar 1.628231866358e+00 1.465068193481e+01 1.192269760033e+01
Ar 7.705856880743e+00 9.238158611664e+00 1.299166535564e+01
Ar 1.763472996975e+00 1.616113870209e+01 1.537566342287e+01
Ar 7.555142202984e+00 1.241348762994e+01 1.070739661844e+01
Ar 8.202381277688e-01 1.738026255335e+01 1.613505723004e+01
Ar 8.024578538649e-01 7.183036089016e+00 1.748970450324e+01
Ar 3.859589158679e-01 1.717910193712e+01 1.074984986471e+01
Ar 9.824583409551e+00 1.028583508034e+01 8.815148696811e+00
Ar 1.609117227246e+01 1.435830209968e+01 1.196791902217e+01
Ar 1.479994436589e+01 1.861515617466e+01 1.608241310123e+01
Ar 4.055471712892e-01 1.593439497577e+01 1.603006812492e+01
Ar 1.764530064131e+00 1.554934099153e+01 1.625206376542e+01
Ar 2.544835080041e-01 9.097646475984e+00 5.983519825711e+00
Ar 2.092777387087e+00 1.056535364298e+01 7.521015562178e+00
Ar 5.272541948371e+00 5.205620662347e+00 1.147574753667e+00
Ar 1.330780741175e+01 4.459464773307e+00 1.478725533465e+01
Ar 1.530161489308e+01 1.135657086113e+01 1.525215891863e+01
Ar 1.215191694238e+01 1.697025484442e+01 7.034993346709e-02
Ar 1.698070389164e+01 7.812576821991e+00 5.632433123735e+00
Ar 1.769079021259e+01 1.528777375813e+01 4.301547674478e+00
Ar 1.278173330369e+01 1.134414307984e+01 1.512908465126e+01
Ar 1.619988321675e+01 8.832460139182e+00 1.623507233983e+01
Ar 7.050244707817e+00 1.078574670058e+01 1.038995083957e+01
Ar 2.696364630797e+00 9.028075488333e+00 4.274720874555e+00
Ar 1.772627175238e+01 1.618711030160e+01 1.634417730877e+01
Ar 1.601188933432e+00 1.260365055066e+01 1.224803166203e+01
Ar 1.750846751319e+01 1.024602821698e+01 9.487617220944e+00
Ar 1.420071738298e+01 1.246464182046e+01 6.669747582440e+00
Ar 8.983420972147e+00 1.685754035738e+01 1.814091036026e+01
Ar 6.320517142567e-01 1.195008296785e+01 4.482797541382e+00
Ar 1.595130136582e+01 8.147985346114e+00 6.757525636041e+00
Ar 1.572541434940e+01 2.257351292385e-01 3.267166550166e+00
Ar 1.819668447901e+01 8.497939904253e+00 1.061132445553e+01
Ar 1.044638603768e+01 8.361735946339e+00 1.615766497456e+01
Ar 2.102388676456e+00 5.730218892316e+00 5.314712681155e+00
Ar 1.811438232465e+01 1.152013931137e+01 1.484532573541e+01
Ar 5.148535867099e+00 1.748618173516e+01 1.175700739745e+01
Ar 1.690774123386e+01 1.632500787741e+00 1.082970290373e+01
Ar 1.045322787217e+01 4.774826657038e+00 1.542093583847e+01
Ar 9.501985874536e+00 1.819950741835e+01 1.159494546685e+01
Ar 9.025070147810e+00 2.949832183176e+00 3.324410785252e+00
Ar 6.136091449253e+00 1.112484302171e+01 1.779202622086e+01
Ar 9.351185670680e+00 2.426910468520e+00 1.786767978116e+01
Ar 8.417762936325e+00 1.540256811474e+01 1.202692540632e+01
Ar 1.215084939900e+01 1.068897096417e+01 8.552709945435e+00
Ar 1.389539300500e+01 1.312293130151e+01 1.827964447411e+00
Ar 1.299151997022e+01 1.477260325253e+01 1.216740406662e+01
Ar 1.114364733922e+01 5.856927978606e+00 3.169535520044e+00
Ar 9.206658611047e+00 5.767126345659e+00 2.896386642217e+00
Ar 3.620674689776e+00 1.668034536886e+01 1.559782173281e+01
Ar 3.148363452140e+00 3.213789906817e+00 1.262843979662e+00
Ar 1.771554261683e+01 2.552270032348e-03 5.323055618864e-01
Ar 1.380563821766e+00 1.743480094894e+01 9.647776643567e+00
Ar 5.447319808018e+00 5.823694041403e+00 5.078272578172e+00
Ar 1.483421003286e+01 8.470863799380e+00 7.212545424236e+00
Ar 1.466161970620e+01 5.794034024054e+00 6.206555815852e+00
Ar 5.893487518385e+00 1.773722792785e+01 4.680594064938e+00
Ar 7.869681399546e+00 1.016789573550e+01 4.704186488948e+00
Ar 6.929158536784e+00 4.803183878102e-01 1.147383564817e+01
Ar 7.047164466585e+00 1.617903239219e+00 1.462190821147e+01
Ar 4.495730206737e+00 8.365844720981e+00 2.207445657108e+00
Ar 1.687402842395e+01 7.878542748697e+00 9.014706452319e+00
Ar 2.147030269469e+00 1.359839445392e+01 5.770947478282e+00
Ar 9.188224757044e-01 6.451246794573e+00 9.875162337370e+00
Ar 9.926857914206e-02 7.616800258088e+00 4.413505476137e+00
Ar 1.168857620340e+01 2.526549557529e+00 1.228464756627e+01
Ar 1.383160173905e+01 1.109825464156e+01 2.846153852928e+00
Ar 3.901217267895e+00 1.155692686715e+01 1.200432173527e+01
Ar 1.375380131718e+01 4.999405443828e+00 4.312751309895e+00
Ar 1.630957150254e+01 4.871768854200e+00 1.074651742694e+01
Ar 1.796300120935e+01 2.092088022620e-01 1.772084830332e+01
Ar 2.952916378137e+00 1.151669836630e+00 1.323299414545e+01
Ar 1.243616290690e+01 3.139723829553e-02 6.989329731426e+00
Ar 3.949691540615e+00 1.691766709375e+01 6.581915142949e+00
Ar 1.239300276405e+00 1.366537909854e+01 1.191321619015e+01
Ar 5.674757723179e+00 5.065116104566e-01 1.026097469324e+01
Ar 1.145127035681e+01 2.062833027885e+00 5.479242806356e+00
Ar 1.216566939973e+01 1.211750749775e+01 1.155554477175e+01
Ar 1.125239726105e+01 1.480111678396e+01 1.529460177470e+01
Ar 1.536553395934e+01 1.394429668193e+01 9.780235360229e+00
Ar 1.766218245650e+01 4.484705158229e-01 1.093553939786e+01
Ar 1.288893757962e+01 4.632974895622e+00 1.978444073564e+00
Ar 3.659929757423e+00 6.703551301694e+00 1.647349092985e+00
Ar 1.673642441611e+01 7.702639527091e+00 7.944413290254e+00
Ar 3.880522311345e+00 6.307759367455e-01 1.379548792763e+00
Ar 9.595267144590e+00 3.640628983924e+00 8.202022548304e+00
Ar 3.242380907637e+00 2.042573981977e+00 1.732246572573e+01
Ar 3.858322770592e-01 7.500226933625e+00 9.427970719129e+00
Ar 1.493665393595e+01 1.539730136654e+01 1.627462847291e+01
Ar 4.067075973257e+00 8.254506059700e+00 1.320333579688e+00
Ar 6.277240767999e+00 5.926160307327e+00 8.229406381236e-01
Ar 1.142951373080e+01 9.315791512979e+00 1.455330715113e+01
Ar 4.388953222572e+00 1.428016184384e+00 1.329614838827e+01
Ar 7.494530844533e-01 4.514854073418e+00 1.448193823980e+00
Ar 1.669358187754e+01 1.674840927475e+01 8.095884272879e+00
Ar 7.498244965417e+00 3.799339030606e+00 3.088382530471e+00
Ar 3.065051263784e+00 5.297144335730e+00 1.430608934502e+01
Ar 1.307924162967e+01 1.764507054213e+01 8.053203142731e+00
Ar 9.270342978058e+00 1.168085109231e+01 1.721476715885e+01
Ar 2.831452207432e+00 6.759879225080e+00 7.736777885931e+00
Ar 1.567882087243e+01 1.348565478948e+01 6.914704507312e+00
Ar 2.944560898286e+00 9.731939790087e+00 2.629795399565e+00
Ar 1.719726193268e+00 8.490890745091e+00 1.522998339104e+01
Ar 1.002218912489e+01 1.262628711504e+01 1.435147765601e+01
Ar 1.587997602474e+01 5.329173633765e+00 1.671082132434e+01
Ar 5.267543282176e+00 8.595964258339e+00 5.616137958965e+00
Ar 2.677507321801e+00 6.670334242275e+00 2.270473419405e+00
Ar 1.361273934983e+01 1.244057740119e+01 1.175447862208e+01
Ar 1.290049807149e+01 1.349728828550e+01 1.042904738873e+00
Ar 1.618103757684e+01 3.656841120368e+00 1.056024629419e+01
Ar 1.183676461277e+01 1.171871077445e+00 6.039775081367e+00
Ar 1.691437931670e+01 1.052781993352e+01 1.027655300013e+01
Ar 1.344537218353e+01 1.572487641975e+01 1.543313622834e+01
Ar 1.030322348815e+01 1.199425598288e+01 8.841903994737e-01
Ar 1.563103456602e+01 1.237279311469e+01 8.684670633692e+00
Ar 1.308391539981e+01 1.723264335051e+01 9.577707009775e+00
Ar 1.169069531865e+01 9.231406798451e+00 1.564582464492e+01
Ar 1.831463928485e+01 1.084895293474e+01 5.949392743219e+00
Ar 7.445275220534e+00 1.729322552507e+01 1.660669421394e+01
Ar 1.795474983286e+01 1.309194674829e+01 8.871967917209e+00
Ar 7.847076180358e+00 2.495520743609e+00 7.966580057554e+00
Ar 1.480636683913e+01 9.615999635714e+00 7.474795377791e+00
Ar 1.300079774857e+01 1.602156519590e+01 1.420237380286e+01
Ar 4.993684751833e+00 4.120422636006e+00 9.353146684996e+00
Ar 1.406049432437e+01 3.059682870855e-01 4.552751119932e+00
Ar 2.539705788258e+00 1.652820118495e+00 5.467346982039e+00
Ar 1.499525562140e+01 3.000293557465e+00 1.576032142173e+01
Ar 1.351544741910e+01 2.404910427608e+00 3.379509067700e-01
Ar 7.307868486802e+00 1.332831005776e+01 2.502121809657e+00
Ar 8.127175170066e-01 1.143408788162e+01 8.202787159588e+00
Ar 7.361398926484e+00 8.202661517935e+00 1.524653610779e+01
Ar 1.844432863883e+01 1.529633995770e+01 7.073259737689e+00
Ar 1.416624225385e+01 9.828679821421e+00 6.569505777515e+00
Ar 1.811539124136e+01 3.142031833975e+00 9.093613342907e+00
Ar 4.690952596954e+00 4.752995354249e-01 4.309678424396e+00
Ar 1.399024065740e+01 1.449625480437e+01 1.086148034274e+01
Ar 4.557584483367e+00 1.251009327666e+01 1.063878241319e+00
Ar 1.701069841421e+01 1.128951548093e+01 8.805288241413e+00
Ar 6.860187697856e+00 7.774634824352e+00 1.441614498480e+01
Ar 1.462270817660e+01 3.080467895164e+00 1.405356998282e+01
Ar 1.396051382295e+01 3.725247838235e+00 2.610601442748e+00
Ar 7.226249602419e+00 1.002197352865e+01 6.578844620125e+00
Ar 1.118805936282e+01 4.287713380674e+00 1.656793793048e+00
Ar 4.182116575443e+00 7.519271868898e+00 9.165048677197e+00
Ar 2.801103216402e+00 1.753126238985e+01 1.364669173455e+01
Ar 8.291798533959e+00 1.039551385848e+00 1.500719460154e+01
Ar 1.245371434808e+01 9.041361702838e+00 2.081760435939e+00
Ar 1.118941255635e+01 1.121733955899e+01 1.064080231207e+01
Ar 3.555732367561e-02 2.900023981438e+00 1.442181058763e+01
Ar 6.743134596927e+00 5.217025204493e+00 7.512076066204e+00
Ar 3.915617746912e+00 8.520939155084e+00 5.129614331167e+00
Ar 1.088467042236e+01 1.444040566582e-01 6.513989142019e-01
Ar 8.704435922304e+00 5.825453405598e+00 1.876837927938e+00
Ar 1.263154179815e+01 1.356348988365e+01 1.163950857873e+01
Ar 1.097701018267e+01 1.759758743728e+01 1.274920514223e+01
Ar 9.446861971473e+00 1.394135531164e+01 6.674035452734e+00
Ar 1.219897850837e+01 2.082799359887e+00 1.623774581230e+01
Ar 3.429298556826e-02 7.409229602985e+00 1.078968245321e+01
Ar 1.744745325676e+01 4.329734044000e+00 1.067149896904e+01
Ar 4.563843351086e+00 9.022756687254e-02 1.011948658814e+01
Ar 1.256310777580e+01 2.617870535015e-01 1.600172154364e+01
Ar 1.529976921403e+01 1.130519515579e+01 1.195259942296e+01
Ar 3.452389456914e+00 1.741633788710e+01 1.158942086152e+01
Ar 3.505890516192e+00 1.757972147292e+00 2.117005735608e+00
Ar 1.129145503851e+01 1.841575172426e+01 7.254120884654e+00
Ar 1.152775279618e+01 7.899232712833e-01 1.373268384256e+00
Ar 4.735054752638e+00 8.472834238706e+00 1.723486132906e+01
Ar 8.238719234884e+00 3.095648066135e+00 1.713538852863e+01
Ar 1.235863077760e+01 3.225777922058e+00 1.007425452700e+01
Ar 1.155486819430e+01 1.713013353068e+01 7.849945654653e+00
Ar 1.698948782681e+01 3.542660573917e+00 6.443410843683e+00
Ar 9.466971757624e+00 1.220114579763e+01 1.607549500275e+01
Ar 2.928210016171e+00 6.967898145127e+00 8.930876570758e+00
Ar 1.309196498292e+01 9.487238524152e+00 1.746458435858e+01
Ar 3.892194069978e+00 2.292858624810e+00 1.399821471042e+01
Ar 1.786265528707e+01 8.572194140387e+00 8.453572832000e+00
Ar 2.973540699618e+00 4.828694367570e+00 1.639563188271e+01
Ar 1.586097017262e+01 2.824682674883e+00 3.745536457789e+00
Ar 1.625663769920e+01 3.839337550863e+00 4.423077723019e+00
Ar 1.027438825374e+01 3.520397037452e+00 1.352949710516e+01
Ar 5.880692570095e+00 5.401755203479e+00 6.845024427870e+00
Ar 1.115398991333e+01 5.018572020899e+00 7.655759347172e+00
Ar 6.381099031839e+00 1.798769339718e+01 1.261961212655e+01
Ar 1.458338911858e+01 1.201560035140e+01 1.145497591218e+01
Ar 1.105968713394e+01 1.223257838448e-02 8.734754486491e+00
Ar 1.435996713834e+01 1.513015866416e+01 1.515132015973e+01
Ar 2.454569453688e+00 1.748426238586e+01 2.693893493573e-01
Ar 1.375876034343e+01 1.201133702534e+01 1.050034387538e+01
Ar 9.351517246591e-01 7.695626089951e+00 1.038526686805e+01
Ar 1.770495691886e+01 9.391089635617e+00 7.674670232592e+00
Ar 1.250298636708e+01 1.498198931320e+01 1.396829850289e+01
Ar 1.194136701296e+01 6.871676753167e+00 1.175466883910e+01
Ar 1.294599018407e+01 1.575663120861e+01 4.631016569820e+00
Ar 1.822900643256e+01 1.164063710958e+01 9.308956836733e+00
Ar 1.490207135429e+01 1.669630165909e+01 1.391164087152e+01
Ar 1.531031908450e+01 1.458767734241e+01 2.114840096273e+00
Ar 1.474112820994e+01 6.631263264467e+00 7.735636685701e-01
Ar 1.737492277325e+01 9.815022327788e+00 1.570718969627e+01
Ar 1.635072559065e+01 1.447783163781e+00 9.806760335177e+00
Ar 3.989980988929e+00 8.738085354883e-01 1.615983288315e+01
Ar 1.093571207244e+01 1.609356047097e+01 1.934146952915e+00
Ar 1.460269323038e+01 8.547959853227e+00 1.364711110490e+01
Ar 8.852126974454e-02 6.626062548159e+00 3.492732682891e+00
Ar 1.348308737027e+01 1.067342575610e+01 1.008354072390e+01
Ar 1.581556436639e+01 1.016163322572e+01 1.070225366327e+01
Ar 2.513670575435e+00 1.447468585213e+00 1.672582805828e+01
Ar 9.438361726314e+00 1.009496480604e+01 1.393820091973e+00
Ar 1.315551369652e+01 8.182935517555e+00 6.475622249221e+00
Ar 8.459666114183e+00 9.972570344290e+00 5.644374267449e-01
Ar 6.535051346840e+00 1.021493464367e+01 1.131236504418e+01
Ar 1.369592842333e+01 1.110793153455e+01 1.694682825106e+01
Ar 1.173880679619e+01 9.816782696497e+00 1.261773688789e+01
Ar 4.214598416182e+00 1.646018509576e+01 9.104663012927e+00
Ar 1.713762172871e+01 1.514688462968e+01 5.377686749196e+00
Ar 2.829627705145e-01 9.822718480994e+00 3.470470526710e+00
Ar 1.700347750023e+01 7.832211991798e+00 4.589264223430e+00
Ar 1.661131905360e+01 1.668556830043e+01 6.059993693059e+00
Ar 5.664182981360e+00 4.997773801716e-01 2.541034410636e+00
Ar 7.392453721572e+00 1.567028605408e+01 2.075275025868e+00
Ar 1.725877131106e+01 1.435037770426e+01 6.058402576066e+00
Ar 3.486410571991e+00 1.082533271075e+01 1.642972752962e+01
Ar 1.725181947686e+01 1.311945873352e+01 1.090782253581e+00
Ar 1.476286895939e+01 8.995891267522e+00 1.040488409461e+01
Ar 1.796263143289e+01 2.102728277562e+00 1.502327581998e+01
Ar 1.710802145113e+01 5.823281474708e+00 2.964868104209e+00
Ar 1.455424776273e+01 1.379597345475e+01 1.437597762695e+01
Ar 9.787567859599e+00 1.173907866362e+01 1.355759165257e+01
Ar 1.671360346534e+01 1.829477378552e+01 8.968571602421e+00
Ar 1.000480137251e+01 1.146678646852e+01 2.855792150376e+00
Ar 1.663205902692e+01 4.665826796897e+00 3.968842514041e+00
Ar 1.626431433385e+01 1.533175944474e+01 1.162373191269e+01
Ar 5.714302184614e+00 1.762125231458e+01 1.776380111098e+01
Ar 5.338797154638e+00 3.049380062143e+00 5.030817567660e+00
Ar 3.549308029288e+00 5.329593456056e+00 5.702366713180e+00
Ar 1.364433775493e+01 4.827584588932e+00 5.849383910280e+00
Ar 3.113098384168e-02 1.586910850819e+01 7.680162298240e+00
Ar 5.273692886449e+00 5.175789621286e+00 7.910072373969e+00
Ar 1.142627232385e+01 1.234533768285e+01 1.227466355324e+00
Ar 5.674618544293e-01 1.831215884134e+01 1.468206942628e+01
Ar 2.115606864277e+00 1.157101415650e+01 4.765888807402e+00
Ar 1.078641236685e+01 1.310874630674e+01 5.279425377284e+00
Ar 8.464522042460e+00 2.710165074277e+00 1.119003853915e+01
Ar 1.719580798102e+01 9.069711655629e+00 9.808620293690e+00
Ar 9.310553203770e+00 1.466456082508e+01 4.520656377417e+00
Ar 5.211460421747e+00 5.291644039487e-01 1.790125116767e+01
Ar 6.105527420169e+00 1.598917982796e+01 4.606675527314e-01
Ar 1.468810753305e+01 1.046013196834e+01 1.081985788379e+01
Ar 5.780061337999e+00 1.500199819879e+01 1.364431251386e+01
Ar 1.673568245161e+01 9.900632676223e-01 6.925865410303e-02
Ar 1.136591668871e+01 9.947548386092e+00 5.456229426373e+00
Ar 7.366020535634e-01 6.820983131859e+00 5.244970651457e+00
