343
L = 18.303043333
Ar 6.658978960744e-01 1.578470383497e+01 1.473835053114e+01
Ar 1.066702642145e+01 1.198585292857e+01 2.801197255503e+00
Ar 1.191047751002e+00 6.263064145345e+00 5.850484601838e+00
Ar 9.219443946819e+00 1.391648559521e+01 1.764989067607e+01
Ar 1.686970075186e+01 8.277613354095e+00 1.727657386910e+01
Ar 1.343407822601e+01 8.935829537930e+00 1.218174822490e+01
Ar 2.406440636292e+00 3.945490284847e+00 6.031558978136e+00
Ar 9.832800388936e+00 3.252196986346e+00 1.107346727407e+01
Ar 8.771146489673e+00 1.510903130432e+01 1.200765233559e+01
Ar 1.140512899449e+01 1.768776544097e+01 1.485811398753e+01
Ar 6.733963504268e+00 1.072603714226e+01 8.808595346878e-01
Ar 1.633823642715e+01 7.610302613826e+00 1.062790992111e+01
Ar 7.861477331085e+00 6.535805085804e+00 6.426923066117e+00
Ar 1.287530120772e+01 1.694971222763e+00 4.987367568724e+00
Ar 1.437938254869e+00 7.437677005466e+00 4.115561271894e-01
Ar 1.298613596051e+01 1.040817087990e+00 3.864978042368e+00
Ar 9.340135128766e+00 1.581954940543e+01 1.432436610149e+01
Ar 2.551092042677e+00 1.033984268386e+01 5.048822289239e+00
Ar 1.011412570740e+01 1.704445690662e+01 6.154330210954e+00
Ar 2.684329847126e+00 2.980306653014e+00 1.781534110679e+01
Ar 6.222504145847e+00 1.610245072959e+01 2.647085522795e+00
Ar 6.164048383754e+00 1.082917031003e+01 4.549988299727e+00
Ar 1.193626335610e+01 1.545855085465e+01 6.513741652319e+00
Ar 7.978794067123e+00 6.449743583839e+00 7.480054415791e+00
Ar 2.394641642536e+00 1.504392474641e+01 8.598904611373e+00
Ar 6.705520707342e+00 1.417527759851e+01 7.552450986441e+00
Ar 8.279619598310e+00 8.662917499469e+00 8.264506639984e+00
Ar 9.712035857236e+00 7.101825770417e+00 1.509065338755e+01
Ar 1.320034083056e+01 9.288154305858e+00 1.382129810766e+00
Ar 9.090939700516e+00 5.339013523092e+00 9.016385864805e+00
Ar 2.734207418621e+00 4.661795052690e+00 7.020738977127e+00
Ar 1.116407696797e+01 9.357512785449e+00 1.272694471830e+01
Ar 1.492252346955e+01 1.653783043849e+01 7.702189911397e+00
Ar 7.313750403175e+00 1.432594147138e+01 8.461498120296e+00
Ar 1.488593844472e+01 8.956452314223e+00 1.060360330248e+01
Ar 5.888077956216e+00 1.145359909709e+01 1.429825811015e+01
Ar 5.772711726669e+00 1.486498484490e+01 1.337918402355e+01
Ar 1.550008369010e+01 2.846959223979e+00 1.439808071628e+01
Ar 1.586925028162e+01 6.610002401602e+00 4.158999363846e+00
Ar 1.184562685878e+00 1.571000616590e+01 8.568239661399e+00
Ar 1.076662536798e+01 1.663092693225e+01 9.448288552833e+00
Ar 9.078394579691e+00 1.076145973811e+01 1.172392269206e+00
Ar 9.070453513285e+00 5.674996199965e+00 1.118657754260e+01
Ar 2.603923878495e+00 1.309728468505e+01 8.198329208200e+00
Ar 1.588620624499e+01 1.109846324469e+01 1.072281952894e+00
Ar 6.199932948993e+00 6.639306581079e+00 1.564972308586e+01
Ar 1.413790562176e+01 9.749133330182e+00 1.057360247219e+00
Ar 6.332086821981e+00 7.805126175856e+00 1.330472042567e+01
Ar 1.660949895577e+01 1.887964343186e+00 8.915206465446e+00
Ar 5.089252101812e+00 8.296183003337e+00 6.586892450664e+00
Ar 8.215438373835e+00 1.488835171452e+01 1.509677810971e+01
Ar 1.246625431492e+01 2.327257177021e+00 1.605583649165e-01
Ar 1.168015667931e+01 9.371599265320e+00 1.341516406296e+00
Ar 1.105185333317e+01 7.476369408076e+00 1.725755149122e+01
Ar 1.819549352081e+01 2.525194466348e+00 1.365496174690e+01
Ar 1.475895937831e+01 2.974662035385e+00 1.127635470252e+01
Ar 1.507748627401e+00 1.545977993958e+01 1.384277586612e+01
Ar 1.312074986986e+01 9.912643711243e+00 1.138067865858e+01
Ar 1.806200751588e+01 1.067573848309e+01 1.829871427087e+01
Ar 8.221873740664e+00 7.486344790929e+00 1.467791816684e+01
Ar 1.707750527927e+01 1.958878074190e+00 6.653438329466e+00
Ar 2.642321470773e+00 1.309731972351e+00 1.065662306267e+01
Ar 1.518357450586e+01 1.109086560468e+01 8.936656745226e+00
Ar 1.269969652897e+01 5.391367950720e+00 1.590289776184e+01
Ar 1.511498254965e+01 9.900372699427e+00 8.725710117095e+00
Ar 1.332205961904e+01 3.364184278685e-01 1.742609704882e+01
Ar 1.013585943677e+01 1.742507126293e+01 8.077766469476e+00
Ar 4.904970925191e+00 1.337870342144e+01 4.453421346586e+00
Ar 9.945649476875e+00 7.064434062624e+00 1.393275060864e+01
Ar 6.121684387323e+00 6.362811757181e+00 1.693562878623e+01
Ar 1.255380425225e+01 5.232339569503e+00 1.273718903829e+00
Ar 9.743717405754e-01 6.504410293164e+00 1.353500440182e+01
Ar 9.253690821635e+00 7.016387529599e+00 1.615579236749e+01
Ar 2.090803838759e+00 6.970992752521e+00 8.689541505519e+00
Ar 5.628306034506e-01 1.216887996659e+01 7.376048454589e+00
Ar 1.133002068394e+01 5.558810021149e+00 1.264080436882e+01
Ar 5.858967183832e+00 1.203358789830e+01 7.103121864507e+00
Ar 1.694479494351e+01 1.494976051305e+01 2.501705284341e+00
Ar 7.699542681771e+00 7.925628211004e+00 1.294997804317e+01
Ar 8.497921858593e+00 7.143209409976e+00 8.899217121951e+00
Ar 1.518875478736e+01 7.226434712642e+00 7.940667865472e+00
Ar 1.449221814646e+01 1.558443856290e+01 8.591490213325e+00
Ar 1.814612263141e+01 6.519026654028e+00 4.502917697772e+00
Ar 1.727074636592e+01 1.439358967194e+01 5.165766965053e+00
Ar 2.535537636820e+00 1.772605761115e+01 3.432899776160e+00
Ar 4.602267058136e+00 4.307378088976e-01 3.482534485343e+00
Ar 1.724192554352e+01 1.066873746027e+01 6.153454262432e+00
Ar 1.896183337501e+00 1.672280211251e+01 1.592524185855e+01
Ar 1.210311569968e+01 2.841711396555e+00 1.140267775628e+01
Ar 1.597428214505e+01 9.426980255253e+00 1.071546698553e+01
Ar 1.142868723725e+01 7.749369329264e+00 1.452800410113e+01
Ar 8.165096742976e+00 1.823865081774e+01 1.560713877269e+01
Ar 1.724408073388e+00 5.137392653278e+00 9.833092284891e+00
Ar 1.800490309090e+01 8.223133013410e-01 1.358423491159e+01
Ar 5.473295876235e+00 5.257433869758e-01 8.964006063283e+00
Ar 1.015639352892e+01 8.600320245799e+00 6.159844926893e-02
Ar 1.115280306452e+01 6.104742469067e+00 1.436675284881e+01
Ar 1.517033434188e+01 3.499645217814e+00 8.247197133943e+00
Ar 1.202166946190e+01 2.272530667996e+00 9.072588506091e+00
Ar 3.857345832769e+00 3.722733036488e+00 1.119832800244e+00
Ar 8.795773505586e+00 1.319708509937e+01 3.861104612524e+00
Ar 1.430372276249e+01 1.235872545022e+01 5.024814916439e+00
Ar 4.276247436442e+00 5.991424340497e+00 1.509303932865e+01
Ar 7.589627914283e+00 5.709209916786e+00 1.325732832863e+01
Ar 3.458842884013e+00 2.244462030176e-01 1.158879931096e+01
Ar 8.939269101029e+00 1.351239172475e+01 1.656631273768e+01
Ar 1.774857704880e+01 7.281537142701e+00 8.908294554487e+00
Ar 1.190062029117e+01 3.332562713857e+00 3.857784097515e+00
Ar 1.759320921616e+01 1.474222363642e+01 2.655651316069e-01
Ar 1.614690678431e+01 9.151356992275e+00 1.440204395847e+01
Ar 1.411877763350e+01 1.217248068152e+01 1.297109034884e+01
Ar 1.264117701854e+01 1.547147641421e+01 5.313604526446e+00
Ar 1.240044648415e+01 1.454820253554e+01 2.663110498794e+00
Ar 1.388319693509e+01 1.776988468826e+01 1.640219652567e+01
Ar 7.577862208783e+00 8.917149440280e+00 4.791685865541e-01
Ar 6.797601521160e+00 9.845095828224e-01 1.706075682659e+01
Ar 5.225734718602e+00 1.234170098711e+01 1.190834496278e+01
Ar 7.211682612633e+00 7.848308450614e+00 1.733719643982e+01
Ar 1.142862851147e+01 1.602017440236e+01 7.814348275847e+00
Ar 1.475416130238e+01 1.028293050106e+01 6.548632900771e+00
Ar 1.076994017194e+01 1.463203151444e+01 1.188005188542e+00
Ar 1.797721744775e+01 1.468382777361e+01 1.093228259685e+01
Ar 3.126202364452e+00 7.209147007685e-01 1.766954269079e+00
Ar 1.766337092687e+01 1.744189309267e+00 9.998445858741e+00
Ar 4.970560967721e+00 1.393905040195e+01 5.728452169775e+00
Ar 1.520958372539e+01 7.575786007782e+00 4.389161796191e+00
Ar 1.494623677475e+01 1.707624123433e+01 1.110175650797e+01
Ar 7.481884722486e+00 5.670385014349e-01 1.623115377053e+01
Ar 3.456413994503e+00 1.141886010917e+01 4.882004806923e+00
Ar 1.518447023730e+00 4.720315952400e+00 3.935473210477e+00
Ar 6.558713451949e+00 1.693490260266e+01 1.579353192180e+01
Ar 1.314675089651e+01 9.792115280185e+00 5.082918233463e+00
Ar 1.269458663233e+01 4.861662813055e+00 3.201686402190e+00
Ar 1.291130188834e+01 1.099135449590e+00 8.432994462276e+00
Ar 1.217217609738e+01 8.069822735815e+00 1.620649700595e+01
Ar 1.788181539685e+01 6.038535417349e+00 8.102479728346e+00
Ar 9.816050520408e+00 1.243555954205e+01 1.751269347843e+01
Ar 3.075325135746e+00 5.940127626985e-01 1.825608453586e+01
Ar 1.609325285833e+01 3.110553884127e+00 9.244597173492e+00
Ar 3.924527933529e+00 3.869053198811e+00 1.754654245402e+01
Ar 1.088342370854e+01 4.437941141665e+00 3.628155846623e+00
Ar 1.812163549730e-02 1.519298895854e+01 1.263673558555e+01
Ar 5.210579634689e+00 6.339179949742e+00 1.164918739203e+01
Ar 3.489186787870e+00 4.866504684694e+00 8.758725536440e+00
Ar 1.447888179562e+01 7.865350987336e-01 7.258157319343e-01
Ar 1.286883577334e+01 1.260656182624e+01 1.440383677198e+01
Ar 5.058352625042e+00 9.173234811431e+00 9.655329383258e+00
Ar 1.169435847179e+01 1.005547730217e+01 3.468717307849e+00
Ar 9.553371176745e+00 1.351188502742e+01 1.543102334416e+01
Ar 7.953060432509e+00 1.280804803461e+01 1.529839469840e+01
Ar 1.218157700054e+01 3.898951647632e+00 6.638850257549e-01
Ar 9.522079028971e+00 1.642353293565e+01 1.778260003423e+01
Ar 8.350582211217e+00 1.129903697842e+01 4.005097588796e+00
Ar 4.482543990788e+00 1.004959139774e+01 1.235940580516e+01
Ar 1.349534762365e+01 1.009365826102e+01 9.945081511928e+00
Ar 5.180042049096e+00 7.090614051745e-02 1.473523919789e-01
Ar 2.976825781199e+00 8.408019228691e+00 4.932244069783e+00
Ar 1.329565499064e+01 4.081024107214e+00 4.820789684699e+00
Ar 1.055642076905e+01 1.246906816030e+01 1.415169605043e+00
Ar 8.965497649063e+00 1.792752042315e+01 1.046651459182e+01
Ar 1.667172024298e+01 1.781732791449e+00 7.505931151448e+00
Ar 2.744722876264e+00 9.243422287249e+00 1.954944669210e+00
Ar 8.615516199204e+00 2.103888804885e+00 8.174052787194e+00
Ar 9.131176237217e+00 1.063922068585e+01 1.116804212782e+01
Ar 4.859193089923e+00 1.585875160974e+01 4.356017903529e-01
Ar 1.475412782988e+01 3.366623392869e+00 9.403685415396e+00
Ar 1.656537815979e+01 1.288760175991e+01 1.819693634141e+01
Ar 3.670259638435e+00 1.069142602671e+01 1.547381982153e+01
Ar 1.499277640905e+01 1.433834438914e+00 1.364477539124e+01
Ar 1.416221084530e+00 1.811852953792e-02 9.358253837143e+00
Ar 9.895522407692e+00 1.177537584812e+01 1.395677991063e+01
Ar 1.099417382673e+01 1.389304884147e+01 2.689095641291e+00
Ar 1.179244983632e+01 7.842332942827e+00 1.296279978950e+01
Ar 1.075631544634e+01 1.019396738704e+01 5.111971989625e+00
Ar 1.385147711914e+01 6.479885451544e+00 9.943584639627e+00
Ar 1.257524339443e-01 2.594118688171e+00 6.321270920964e+00
Ar 1.507770934595e+01 8.608956077810e+00 1.670772921120e+01
Ar 9.256832555961e+00 4.493546391846e-02 1.560904948334e-01
Ar 4.418173776307e+00 1.139578152831e+01 7.034211339391e+00
Ar 1.360741544303e+01 8.187087279635e+00 5.417244245114e+00
Ar 5.922100092269e-01 1.416981909328e+01 8.446521542773e+00
Ar 1.740528509484e+01 9.559256768720e-01 8.594813598866e+00
Ar 6.195380815353e+00 3.097526433301e+00 1.353543962545e+01
Ar 1.701054238327e+01 8.866517759734e+00 4.608975930203e+00
Ar 1.407185827102e+01 6.851073948952e+00 2.598764077817e+00
Ar 8.331430905854e+00 8.991418693183e+00 7.163501753144e+00
Ar 1.608754485840e+01 1.413582013794e+01 1.829399747855e+01
Ar 6.573793994752e+00 7.181036126623e+00 1.171981066176e+01
Ar 1.320474640777e+01 1.996249595397e+00 1.097269525516e+01
Ar 6.934014651456e+00 2.260424055273e+00 4.602031961240e+00
Ar 1.058244140477e+01 9.178876980354e-02 1.148478509091e+01
Ar 1.522096794278e+01 2.297468812639e+00 1.520838972410e+01
Ar 8.297087914782e+00 1.360770468273e+01 2.522713923583e-01
Ar 1.675802423131e+00 6.561846823821e+00 1.114216066327e+01
Ar 1.068123890663e+01 1.330673613605e+01 1.389755435882e+01
Ar 3.987661538828e+00 7.531842337359e+00 8.942965333528e+00
Ar 1.634776316720e+01 1.573203794922e+01 1.594567515375e+01
Ar 1.244251972680e+01 4.262963270594e+00 5.882500100526e+00
Ar 9.115569598388e+00 7.136829777850e+00 1.062883690435e-01
Ar 1.627679737432e+01 1.242767475165e+01 8.817176314949e+00
Ar 6.127310188902e+00 1.333603956315e+01 1.499512760207e+01
Ar 9.605472288293e+00 9.852352287479e+00 7.886126913673e+00
Ar 1.295719110302e+01 8.002187600486e+00 1.709660336214e+01
Ar 1.770451192636e+00 3.424705762478e+00 7.357878314485e+00
Ar 1.047176007820e+01 1.575853316559e+01 1.495849099990e+01
Ar 6.042372649436e+00 1.682948717238e+01 4.900122453898e+00
Ar 1.076505030995e+01 1.265036352468e+01 5.552308934111e+00
Ar 1.751795868348e+01 3.496004875721e+00 1.081054866595e+01
Ar 1.585368036502e+01 1.417369462163e+01 1.258847325077e+01
Ar 1.484906467743e+01 8.014698886920e+00 1.501297366845e+01
Ar 3.061981558642e+00 9.702074679718e+00 3.512258652829e+00
Ar 1.303880212010e+00 8.373462590930e-01 6.698085994507e+00
Ar 7.331553852224e-01 2.821519197985e+00 3.293255617542e+00
Ar 8.504712000460e+00 1.825888322628e+01 8.882676726285e+00
Ar 1.899728229281e+00 7.567091556253e+00 1.395417174649e+01
Ar 1.781613887151e+01 3.013147028909e+00 7.229518941623e+00
Ar 9.833598229976e+00 2.872506986300e+00 1.208395520042e+01
Ar 1.744706566248e+01 1.017310279779e+00 1.749385856431e+01
Ar 6.166963585935e+00 9.537424306494e+00 1.694336543386e+01
Ar 3.726871597973e+00 1.180743174748e+01 1.778155048370e+01
Ar 9.801594658871e+00 2.778282262910e+00 1.373425888275e+01
Ar 1.812141816527e+01 8.534357486327e+00 5.513466429054e+00
Ar 7.153801598735e+00 2.375863379947e+00 9.030316147066e+00
Ar 1.351846678119e+01 1.638111164691e+01 1.626488160820e+01
Ar 6.066661632057e+00 1.381454430078e+01 1.548785606470e-01
Ar 2.686530386024e+00 1.572997150401e+01 6.965670421594e+00
Ar 1.668600040937e+01 8.991484707956e+00 8.846310658951e+00
Ar 1.389466239090e+01 9.855465868249e+00 1.466892484139e+01
Ar 1.030393311159e+01 1.606957177749e+01 7.744505791831e+00
Ar 1.504310422125e+01 9.152646704567e+00 1.480110726468e+01
Ar 6.367624500247e+00 6.448311348049e+00 1.104766283173e+01
Ar 1.093657805796e+01 1.459255338212e+01 8.523282693534e+00
Ar 3.359962675329e+00 8.228440685984e+00 8.409972848995e+00
Ar 3.507977752290e+00 3.327173236579e+00 1.385748028535e+01
Ar 3.591961407149e-01 9.368556029919e+00 8.554294604178e-01
Ar 6.342190257777e+00 1.641941269821e+01 4.419159522495e-01
Ar 7.895673352156e+00 1.666081490402e+01 1.393232623427e+01
Ar 1.545935258786e+01 1.618482902430e+01 4.234538434744e+00
Ar 1.490953397789e+01 8.948174600536e+00 6.596611750098e+00
Ar 1.690361537823e+01 6.495465992534e+00 4.101107768018e-01
Ar 1.653176897937e-02 4.939424449447e+00 2.004247149550e-01
Ar 1.053500578097e+01 1.801523745119e+01 1.341237018667e+01
Ar 2.263117647653e-02 3.461101233772e+00 1.238526730963e+01
Ar 4.108217323543e+00 1.350223660637e+01 8.845067785519e+00
Ar 6.917038116211e+00 1.476406175450e+01 1.162432920128e+01
Ar 2.347120245087e+00 1.440618370593e+01 2.769811875781e+00
Ar 3.127247428386e+00 1.668445083314e+01 6.899115706245e-01
Ar 1.200112547872e+01 1.341283436553e+01 1.724577428801e+01
Ar 7.714112702285e+00 1.501235974809e+01 1.401319167389e+01
Ar 1.165518232505e+01 9.979591465269e+00 8.150126945520e+00
Ar 7.753199146208e+00 1.159470148137e+01 8.535705061946e+00
Ar 1.086718400175e+01 1.087025583704e+01 1.223753874235e+01
Ar 1.141124038734e+01 1.497345030078e+01 2.089772751552e-01
Ar 9.152777924778e-01 1.603829844533e+01 1.577829677191e+01
Ar 1.344725280723e+01 1.507811945670e+01 3.172035060953e+00
Ar 3.052102067658e+00 2.706380911168e+00 1.250832671216e+01
Ar 8.953255052388e-01 5.792149304982e+00 7.853391254399e+00
Ar 1.686999523766e+01 7.339644085060e+00 4.348777426454e+00
Ar 4.994142585692e+00 8.212091475543e+00 1.051190024699e+01
Ar 5.014225894181e+00 2.208889798070e+00 4.557668451574e+00
Ar 1.026056710176e+01 6.031274910383e+00 3.995677372353e+00
Ar 3.726944093517e+00 1.171542059421e+00 2.633205962576e+00
Ar 1.648706368035e+01 4.119053407994e+00 7.448181023854e+00
Ar 1.203200224188e+01 9.702803099348e+00 9.266376027896e+00
Ar 8.425623782918e+00 1.564982366931e+01 1.451337681314e+01
Ar 1.044829758027e+01 3.976095956986e+00 1.010546710964e+01
Ar 1.580440522432e+01 1.894951869407e+00 1.317026620073e+01
Ar 1.627364489501e+01 2.978684512895e+00 7.797452831627e+00
Ar 8.265459094807e+00 8.780220738061e+00 2.926402114676e+00
Ar 5.768402863033e+00 1.200155909311e+01 1.339476841453e+01
Ar 6.348650019650e+00 1.529345002894e+01 6.576531195297e-01
Ar 1.245822489274e+01 7.151346747808e+00 9.351206927172e+00
Ar 8.926373342117e+00 1.531347005670e+01 9.895795928588e+00
Ar 2.501474648073e+00 2.758186762271e+00 1.595920357699e+00
Ar 1.782791266080e+00 1.506471082694e+01 1.067121405364e+01
Ar 8.388945121192e+00 7.300874501898e+00 1.678680277658e+01
Ar 1.148784316741e+01 1.096775158880e+00 1.152755570827e+01
Ar 7.091351480679e+00 2.924094966981e+00 9.636423202268e-01
Ar 1.750987287880e+01 8.898214608082e+00 1.180729129108e+01
Ar 1.813193616450e+01 9.585015557620e+00 5.408956914003e+00
Ar 1.210660017263e+00 1.627632964548e+01 1.692212880526e+01
Ar 1.060272606908e+00 1.488915488869e+01 6.858197819674e+00
Ar 1.750969396962e+01 4.265864697589e+00 1.514283378855e+01
Ar 9.553255601152e+00 2.591093022110e+00 4.700727607362e+00
Ar 8.638206998749e+00 2.220989941601e+00 8.876944807009e-01
Ar 1.249775986265e+01 1.578155155647e+01 1.654119684346e+01
Ar 1.783446545364e+01 1.062525170730e+01 1.239606548970e+01
Ar 1.538695335900e+01 1.704479447420e+01 1.282799014095e+01
Ar 9.442013024240e+00 1.737237738952e+00 8.856708590979e+00
Ar 2.633336834390e-01 2.471460898870e+00 7.694583470355e+00
Ar 1.624573679111e+01 6.289231263025e+00 9.348963603223e+00
Ar 9.551624001795e+00 9.638873541776e+00 1.551659397991e+01
Ar 8.729428563033e+00 5.370116533784e+00 7.343365108724e+00
Ar 2.727182779444e+00 3.162293616515e+00 1.453572554968e+01
Ar 6.846411971873e+00 6.868144521354e+00 6.736650237704e+00
Ar 4.301941499838e+00 8.714038799603e+00 1.776090728400e+01
Ar 1.306208585009e+01 1.625600914930e+01 1.132188886583e+01
Ar 3.727048516618e+00 1.212570337691e+01 1.776479707793e+00
Ar 2.869543020297e+00 1.519099458918e+01 1.570900708081e+01
Ar 3.408600643484e+00 2.454978579891e+00 9.515652575202e+00
Ar 1.700666012907e+01 1.529171606365e+01 1.796093720004e+01
Ar 1.218416996361e+01 1.796713044274e+01 8.515256647089e+00
Ar 9.985778012729e+00 1.352860754735e+01 3.427660535364e+00
Ar 6.378090615089e+00 2.441702107692e+00 3.348585911824e+00
Ar 7.877233236969e+00 1.786533220176e+01 1.664158284825e+01
Ar 4.430740962529e+00 2.670912133559e+00 5.263027298761e+00
Ar 8.925978631650e+00 1.500243474064e+01 1.353377999575e+01
Ar 1.476840063391e+01 5.079888286985e+00 4.425286271855e-01
Ar 1.313604590675e+00 1.475802640594e+01 8.121886174398e+00
Ar 4.421852285471e+00 5.331563026529e+00 1.431325412813e+01
Ar 1.668887550399e+01 9.021232438382e+00 1.568076348799e+01
Ar 1.696234723499e+01 1.172735747763e+01 3.163037551382e+00
Ar 5.328853330093e-01 1.624555383257e+01 1.778896749013e+01
Ar 1.800152484497e+01 1.083909424120e+01 5.142946132482e+00
Ar 1.033347318148e+01 3.558554255357e+00 1.429102977970e+01
Ar 1.605392566765e+01 4.034943938250e+00 5.564759612000e+00
Ar 1.688461042458e+01 1.745262815960e+01 1.416147335469e+01
Ar 1.093219625992e+01 8.250736916555e+00 1.356386641095e+01
Ar 2.653962371050e-01 1.650034827581e+01 1.662658872268e+01
Ar 1.731547956164e+01 1.359093478405e+01 4.478489133010e+00
Ar 1.099272324720e+01 1.701708504131e+01 7.100662535570e+00
Ar 1.514979520697e+01 1.206327940245e+01 5.619743225624e+00
Ar 3.787054158978e+00 7.909739713274e+00 1.329534303170e+00
Ar 7.957739250645e+00 1.056622261776e+01 1.260056368319e+01
Ar 1.031388219896e+01 1.654939258573e+01 2.549304177617e+00
Ar 1.392149025378e+01 1.164157929768e+01 1.595108610070e+01
Ar 1.450363608414e+01 4.082456632329e+00 2.355839865934e+00
Ar 1.054695706817e+01 2.558161489636e+00 1.297344358325e+01
Ar 4.032730294941e+00 7.768453390335e+00 1.409322679070e+01
Ar 8.946268720316e+00 2.736852372154e+00 1.696196717014e+01
Ar 1.687559633967e+00 7.959043248318e+00 2.327203700919e+00
Ar 1.599154012473e+01 6.035684461276e+00 4.529673448226e-01
Ar 1.154732259910e+01 1.673185731175e+01 6.148399646203e+00
Ar 1.342552539476e+01 3.865228666552e+00 1.010558460042e+01
Ar 9.881894773878e-01 6.793687959297e+00 7.216037657251e+00
Ar 1.768181604024e+01 1.623740188603e+01 9.996097621100e-01
Ar 7.629828192150e+00 1.772104644906e+01 9.343000030301e+00
Ar 4.354435494316e+00 5.864495142173e+00 1.800486707979e+01
Ar 1.483865888762e+00 9.982718127948e+00 8.938871817211e+00
Ar 4.177771545575e+00 1.276736940940e+01 1.749686552691e+01
Ar 1.768197082396e+01 1.720002446003e+00 3.737047418163e+00
Ar 5.870103444442e+00 1.727166438501e+01 6.138419455761e+00
Ar 8.025368974901e+00 1.273596657571e+01 6.954664765640e+00
