343
L = 11.9698316267
Ar 8.549879733383e-01 8.549879733383e-01 8.549879733383e-01
Ar 8.549879733383e-01 8.549879733383e-01 2.564963920015e+00
Ar 8.549879733383e-01 8.549879733383e-01 4.274939866692e+00
Ar 8.549879733383e-01 8.549879733383e-01 5.984915813368e+00
Ar 8.549879733383e-01 8.549879733383e-01 7.694891760045e+00
Ar 8.549879733383e-01 8.549879733383e-01 9.404867706722e+00
Ar 8.549879733383e-01 8.549879733383e-01 1.111484365340e+01
Ar 8.549879733383e-01 2.564963920015e+00 8.549879733383e-01
Ar 8.549879733383e-01 2.564963920015e+00 2.564963920015e+00
Ar 8.549879733383e-01 2.564963920015e+00 4.274939866692e+00
Ar 8.549879733383e-01 2.564963920015e+00 5.984915813368e+00
Ar 8.549879733383e-01 2.564963920015e+00 7.694891760045e+00
Ar 8.549879733383e-01 2.564963920015e+00 9.404867706722e+00
Ar 8.549879733383e-01 2.564963920015e+00 1.111484365340e+01
Ar 8.549879733383e-01 4.274939866692e+00 8.549879733383e-01
Ar 8.549879733383e-01 4.274939866692e+00 2.564963920015e+00
Ar 8.549879733383e-01 4.274939866692e+00 4.274939866692e+00
Ar 8.549879733383e-01 4.274939866692e+00 5.984915813368e+00
Ar 8.549879733383e-01 4.274939866692e+00 7.694891760045e+00
Ar 8.549879733383e-01 4.274939866692e+00 9.404867706722e+00
Ar 8.549879733383e-01 4.274939866692e+00 1.111484365340e+01
Ar 8.549879733383e-01 5.984915813368e+00 8.549879733383e-01
Ar 8.549879733383e-01 5.984915813368e+00 2.564963920015e+00
Ar 8.549879733383e-01 5.984915813368e+00 4.274939866692e+00
Ar 8.549879733383e-01 5.984915813368e+00 5.984915813368e+00
Ar 8.549879733383e-01 5.984915813368e+00 7.694891760045e+00
Ar 8.549879733383e-01 5.984915813368e+00 9.404867706722e+00
Ar 8.549879733383e-01 5.984915813368e+00 1.111484365340e+01
Ar 8.549879733383e-01 7.694891760045e+00 8.549879733383e-01
Ar 8.549879733383e-01 7.694891760045e+00 2.564963920015e+00
Ar 8.549879733383e-01 7.694891760045e+00 4.274939866692e+00
Ar 8.549879733383e-01 7.694891760045e+00 5.984915813368e+00
Ar 8.549879733383e-01 7.694891760045e+00 7.694891760045e+00
Ar 8.549879733383e-01 7.694891760045e+00 9.404867706722e+00
Ar 8.549879733383e-01 7.694891760045e+00 1.111484365340e+01
Ar 8.549879733383e-01 9.404867706722e+00 8.549879733383e-01
Ar 8.549879733383e-01 9.404867706722e+00 2.564963920015e+00
Ar 8.549879733383e-01 9.404867706722e+00 4.274939866692e+00
Ar 8.549879733383e-01 9.404867706722e+00 5.984915813368e+00
Ar 8.549879733383e-01 9.404867706722e+00 7.694891760045e+00
Ar 8.549879733383e-01 9.404867706722e+00 9.404867706722e+00
Ar 8.549879733383e-01 9.404867706722e+00 1.111484365340e+01
Ar 8.549879733383e-01 1.111484365340e+01 8.549879733383e-01
Ar 8.549879733383e-01 1.111484365340e+01 2.564963920015e+00
Ar 8.549879733383e-01 1.111484365340e+01 4.274939866692e+00
Ar 8.549879733383e-01 1.111484365340e+01 5.984915813368e+00
Ar 8.549879733383e-01 1.111484365340e+01 7.694891760045e+00
Ar 8.549879733383e-01 1.111484365340e+01 9.404867706722e+00
Ar 8.549879733383e-01 1.111484365340e+01 1.111484365340e+01
Ar 2.564963920015e+00 8.549879733383e-01 8.549879733383e-01
Ar 2.564963920015e+00 8.549879733383e-01 2.564963920015e+00
Ar 2.564963920015e+00 8.549879733383e-01 4.274939866692e+00
Ar 2.564963920015e+00 8.549879733383e-01 5.984915813368e+00
Ar 2.564963920015e+00 8.549879733383e-01 7.694891760045e+00
Ar 2.564963920015e+00 8.549879733383e-01 9.404867706722e+00
Ar 2.564963920015e+00 8.549879733383e-01 1.111484365340e+01
Ar 2.564963920015e+00 2.564963920015e+00 8.549879733383e-01
Ar 2.564963920015e+00 2.564963920015e+00 2.564963920015e+00
Ar 2.564963920015e+00 2.564963920015e+00 4.274939866692e+00
Ar 2.564963920015e+00 2.564963920015e+00 5.984915813368e+00
Ar 2.564963920015e+00 2.564963920015e+00 7.694891760045e+00
Ar 2.564963920015e+00 2.564963920015e+00 9.404867706722e+00
Ar 2.564963920015e+00 2.564963920015e+00 1.111484365340e+01
Ar 2.564963920015e+00 4.274939866692e+00 8.549879733383e-01
Ar 2.564963920015e+00 4.274939866692e+00 2.564963920015e+00
Ar 2.564963920015e+00 4.274939866692e+00 4.274939866692e+00
Ar 2.564963920015e+00 4.274939866692e+00 5.984915813368e+00
Ar 2.564963920015e+00 4.274939866692e+00 7.694891760045e+00
Ar 2.564963920015e+00 4.274939866692e+00 9.404867706722e+00
Ar 2.564963920015e+00 4.274939866692e+00 1.111484365340e+01
Ar 2.564963920015e+00 5.984915813368e+00 8.549879733383e-01
Ar 2.564963920015e+00 5.984915813368e+00 2.564963920015e+00
Ar 2.564963920015e+00 5.984915813368e+00 4.274939866692e+00
Ar 2.564963920015e+00 5.984915813368e+00 5.984915813368e+00
Ar 2.564963920015e+00 5.984915813368e+00 7.694891760045e+00
Ar 2.564963920015e+00 5.984915813368e+00 9.404867706722e+00
Ar 2.564963920015e+00 5.984915813368e+00 1.111484365340e+01
Ar 2.564963920015e+00 7.694891760045e+00 8.549879733383e-01
Ar 2.564963920015e+00 7.694891760045e+00 2.564963920015e+00
Ar 2.564963920015e+00 7.694891760045e+00 4.274939866692e+00
Ar 2.564963920015e+00 7.694891760045e+00 5.984915813368e+00
Ar 2.564963920015e+00 7.694891760045e+00 7.694891760045e+00
Ar 2.564963920015e+00 7.694891760045e+00 9.404867706722e+00
Ar 2.564963920015e+00 7.694891760045e+00 1.111484365340e+01
Ar 2.564963920015e+00 9.404867706722e+00 8.549879733383e-01
Ar 2.564963920015e+00 9.404867706722e+00 2.564963920015e+00
Ar 2.564963920015e+00 9.404867706722e+00 4.274939866692e+00
Ar 2.564963920015e+00 9.404867706722e+00 5.984915813368e+00
Ar 2.564963920015e+00 9.404867706722e+00 7.694891760045e+00
Ar 2.564963920015e+00 9.404867706722e+00 9.404867706722e+00
Ar 2.564963920015e+00 9.404867706722e+00 1.111484365340e+01
Ar 2.564963920015e+00 1.111484365340e+01 8.549879733383e-01
Ar 2.564963920015e+00 1.111484365340e+01 2.564963920015e+00
Ar 2.564963920015e+00 1.111484365340e+01 4.274939866692e+00
Ar 2.564963920015e+00 1.111484365340e+01 5.984915813368e+00
Ar 2.564963920015e+00 1.111484365340e+01 7.694891760045e+00
Ar 2.564963920015e+00 1.111484365340e+01 9.404867706722e+00
Ar 2.564963920015e+00 1.111484365340e+01 1.111484365340e+01
Ar 4.274939866692e+00 8.549879733383e-01 8.549879733383e-01
Ar 4.274939866692e+00 8.549879733383e-01 2.564963920015e+00
Ar 4.274939866692e+00 8.549879733383e-01 4.274939866692e+00
Ar 4.274939866692e+00 8.549879733383e-01 5.984915813368e+00
Ar 4.274939866692e+00 8.549879733383e-01 7.694891760045e+00
Ar 4.274939866692e+00 8.549879733383e-01 9.404867706722e+00
Ar 4.274939866692e+00 8.549879733383e-01 1.111484365340e+01
Ar 4.274939866692e+00 2.564963920015e+00 8.549879733383e-01
Ar 4.274939866692e+00 2.564963920015e+00 2.564963920015e+00
Ar 4.274939866692e+00 2.564963920015e+00 4.274939866692e+00
Ar 4.274939866692e+00 2.564963920015e+00 5.984915813368e+00
Ar 4.274939866692e+00 2.564963920015e+00 7.694891760045e+00
Ar 4.274939866692e+00 2.564963920015e+00 9.404867706722e+00
Ar 4.274939866692e+00 2.564963920015e+00 1.111484365340e+01
Ar 4.274939866692e+00 4.274939866692e+00 8.549879733383e-01
Ar 4.274939866692e+00 4.274939866692e+00 2.564963920015e+00
Ar 4.274939866692e+00 4.274939866692e+00 4.274939866692e+00
Ar 4.274939866692e+00 4.274939866692e+00 5.984915813368e+00
Ar 4.274939866692e+00 4.274939866692e+00 7.694891760045e+00
Ar 4.274939866692e+00 4.274939866692e+00 9.404867706722e+00
Ar 4.274939866692e+00 4.274939866692e+00 1.111484365340e+01
Ar 4.274939866692e+00 5.984915813368e+00 8.549879733383e-01
Ar 4.274939866692e+00 5.984915813368e+00 2.564963920015e+00
Ar 4.274939866692e+00 5.984915813368e+00 4.274939866692e+00
Ar 4.274939866692e+00 5.984915813368e+00 5.984915813368e+00
Ar 4.274939866692e+00 5.984915813368e+00 7.694891760045e+00
Ar 4.274939866692e+00 5.984915813368e+00 9.404867706722e+00
Ar 4.274939866692e+00 5.984915813368e+00 1.111484365340e+01
Ar 4.274939866692e+00 7.694891760045e+00 8.549879733383e-01
Ar 4.274939866692e+00 7.694891760045e+00 2.564963920015e+00
Ar 4.274939866692e+00 7.694891760045e+00 4.274939866692e+00
Ar 4.274939866692e+00 7.694891760045e+00 5.984915813368e+00
Ar 4.274939866692e+00 7.694891760045e+00 7.694891760045e+00
Ar 4.274939866692e+00 7.694891760045e+00 9.404867706722e+00
Ar 4.274939866692e+00 7.694891760045e+00 1.111484365340e+01
Ar 4.274939866692e+00 9.404867706722e+00 8.549879733383e-01
Ar 4.274939866692e+00 9.404867706722e+00 2.564963920015e+00
Ar 4.274939866692e+00 9.404867706722e+00 4.274939866692e+00
Ar 4.274939866692e+00 9.404867706722e+00 5.984915813368e+00
Ar 4.274939866692e+00 9.404867706722e+00 7.694891760045e+00
Ar 4.274939866692e+00 9.404867706722e+00 9.404867706722e+00
Ar 4.274939866692e+00 9.404867706722e+00 1.111484365340e+01
Ar 4.274939866692e+00 1.111484365340e+01 8.549879733383e-01
Ar 4.274939866692e+00 1.111484365340e+01 2.564963920015e+00
Ar 4.274939866692e+00 1.111484365340e+01 4.274939866692e+00
Ar 4.274939866692e+00 1.111484365340e+01 5.984915813368e+00
Ar 4.274939866692e+00 1.111484365340e+01 7.694891760045e+00
Ar 4.274939866692e+00 1.111484365340e+01 9.404867706722e+00
Ar 4.274939866692e+00 1.111484365340e+01 1.111484365340e+01
Ar 5.984915813368e+00 8.549879733383e-01 8.549879733383e-01
Ar 5.984915813368e+00 8.549879733383e-01 2.564963920015e+00
Ar 5.984915813368e+00 8.549879733383e-01 4.274939866692e+00
Ar 5.984915813368e+00 8.549879733383e-01 5.984915813368e+00
Ar 5.984915813368e+00 8.549879733383e-01 7.694891760045e+00
Ar 5.984915813368e+00 8.549879733383e-01 9.404867706722e+00
Ar 5.984915813368e+00 8.549879733383e-01 1.111484365340e+01
Ar 5.984915813368e+00 2.564963920015e+00 8.549879733383e-01
Ar 5.984915813368e+00 2.564963920015e+00 2.564963920015e+00
Ar 5.984915813368e+00 2.564963920015e+00 4.274939866692e+00
Ar 5.984915813368e+00 2.564963920015e+00 5.984915813368e+00
Ar 5.984915813368e+00 2.564963920015e+00 7.694891760045e+00
Ar 5.984915813368e+00 2.564963920015e+00 9.404867706722e+00
Ar 5.984915813368e+00 2.564963920015e+00 1.111484365340e+01
Ar 5.984915813368e+00 4.274939866692e+00 8.549879733383e-01
Ar 5.984915813368e+00 4.274939866692e+00 2.564963920015e+00
Ar 5.984915813368e+00 4.274939866692e+00 4.274939866692e+00
Ar 5.984915813368e+00 4.274939866692e+00 5.984915813368e+00
Ar 5.984915813368e+00 4.274939866692e+00 7.694891760045e+00
Ar 5.984915813368e+00 4.274939866692e+00 9.404867706722e+00
Ar 5.984915813368e+00 4.274939866692e+00 1.111484365340e+01
Ar 5.984915813368e+00 5.984915813368e+00 8.549879733383e-01
Ar 5.984915813368e+00 5.984915813368e+00 2.564963920015e+00
Ar 5.984915813368e+00 5.984915813368e+00 4.274939866692e+00
Ar 5.984915813368e+00 5.984915813368e+00 5.984915813368e+00
Ar 5.984915813368e+00 5.984915813368e+00 7.694891760045e+00
Ar 5.984915813368e+00 5.984915813368e+00 9.404867706722e+00
Ar 5.984915813368e+00 5.984915813368e+00 1.111484365340e+01
Ar 5.984915813368e+00 7.694891760045e+00 8.549879733383e-01
Ar 5.984915813368e+00 7.694891760045e+00 2.564963920015e+00
Ar 5.984915813368e+00 7.694891760045e+00 4.274939866692e+00
Ar 5.984915813368e+00 7.694891760045e+00 5.984915813368e+00
Ar 5.984915813368e+00 7.694891760045e+00 7.694891760045e+00
Ar 5.984915813368e+00 7.694891760045e+00 9.404867706722e+00
Ar 5.984915813368e+00 7.694891760045e+00 1.111484365340e+01
Ar 5.984915813368e+00 9.404867706722e+00 8.549879733383e-01
Ar 5.984915813368e+00 9.404867706722e+00 2.564963920015e+00
Ar 5.984915813368e+00 9.404867706722e+00 4.274939866692e+00
Ar 5.984915813368e+00 9.404867706722e+00 5.984915813368e+00
Ar 5.984915813368e+00 9.404867706722e+00 7.694891760045e+00
Ar 5.984915813368e+00 9.404867706722e+00 9.404867706722e+00
Ar 5.984915813368e+00 9.404867706722e+00 1.111484365340e+01
Ar 5.984915813368e+00 1.111484365340e+01 8.549879733383e-01
Ar 5.984915813368e+00 1.111484365340e+01 2.564963920015e+00
Ar 5.984915813368e+00 1.111484365340e+01 4.274939866692e+00
Ar 5.984915813368e+00 1.111484365340e+01 5.984915813368e+00
Ar 5.984915813368e+00 1.111484365340e+01 7.694891760045e+00
Ar 5.984915813368e+00 1.111484365340e+01 9.404867706722e+00
Ar 5.984915813368e+00 1.111484365340e+01 1.111484365340e+01
Ar 7.694891760045e+00 8.549879733383e-01 8.549879733383e-01
Ar 7.694891760045e+00 8.549879733383e-01 2.564963920015e+00
Ar 7.694891760045e+00 8.549879733383e-01 4.274939866692e+00
Ar 7.694891760045e+00 8.549879733383e-01 5.984915813368e+00
Ar 7.694891760045e+00 8.549879733383e-01 7.694891760045e+00
Ar 7.694891760045e+00 8.549879733383e-01 9.404867706722e+00
Ar 7.694891760045e+00 8.549879733383e-01 1.111484365340e+01
Ar 7.694891760045e+00 2.564963920015e+00 8.549879733383e-01
Ar 7.694891760045e+00 2.564963920015e+00 2.564963920015e+00
Ar 7.694891760045e+00 2.564963920015e+00 4.274939866692e+00
Ar 7.694891760045e+00 2.564963920015e+00 5.984915813368e+00
Ar 7.694891760045e+00 2.564963920015e+00 7.694891760045e+00
Ar 7.694891760045e+00 2.564963920015e+00 9.404867706722e+00
Ar 7.694891760045e+00 2.564963920015e+00 1.111484365340e+01
Ar 7.694891760045e+00 4.274939866692e+00 8.549879733383e-01
Ar 7.694891760045e+00 4.274939866692e+00 2.564963920015e+00
Ar 7.694891760045e+00 4.274939866692e+00 4.274939866692e+00
Ar 7.694891760045e+00 4.274939866692e+00 5.984915813368e+00
Ar 7.694891760045e+00 4.274939866692e+00 7.694891760045e+00
Ar 7.694891760045e+00 4.274939866692e+00 9.404867706722e+00
Ar 7.694891760045e+00 4.274939866692e+00 1.111484365340e+01
Ar 7.694891760045e+00 5.984915813368e+00 8.549879733383e-01
Ar 7.694891760045e+00 5.984915813368e+00 2.564963920015e+00
Ar 7.694891760045e+00 5.984915813368e+00 4.274939866692e+00
Ar 7.694891760045e+00 5.984915813368e+00 5.984915813368e+00
Ar 7.694891760045e+00 5.984915813368e+00 7.694891760045e+00
Ar 7.694891760045e+00 5.984915813368e+00 9.404867706722e+00
Ar 7.694891760045e+00 5.984915813368e+00 1.111484365340e+01
Ar 7.694891760045e+00 7.694891760045e+00 8.549879733383e-01
Ar 7.694891760045e+00 7.694891760045e+00 2.564963920015e+00
Ar 7.694891760045e+00 7.694891760045e+00 4.274939866692e+00
Ar 7.694891760045e+00 7.694891760045e+00 5.984915813368e+00
Ar 7.694891760045e+00 7.694891760045e+00 7.694891760045e+00
Ar 7.694891760045e+00 7.694891760045e+00 9.404867706722e+00
Ar 7.694891760045e+00 7.694891760045e+00 1.111484365340e+01
Ar 7.694891760045e+00 9.404867706722e+00 8.549879733383e-01
Ar 7.694891760045e+00 9.404867706722e+00 2.564963920015e+00
Ar 7.694891760045e+00 9.404867706722e+00 4.274939866692e+00
Ar 7.694891760045e+00 9.404867706722e+00 5.984915813368e+00
Ar 7.694891760045e+00 9.404867706722e+00 7.694891760045e+00
Ar 7.694891760045e+00 9.404867706722e+00 9.404867706722e+00
Ar 7.694891760045e+00 9.404867706722e+00 1.111484365340e+01
Ar 7.694891760045e+00 1.111484365340e+01 8.549879733383e-01
Ar 7.694891760045e+00 1.111484365340e+01 2.564963920015e+00
Ar 7.694891760045e+00 1.111484365340e+01 4.274939866692e+00
Ar 7.694891760045e+00 1.111484365340e+01 5.984915813368e+00
Ar 7.694891760045e+00 1.111484365340e+01 7.694891760045e+00
Ar 7.694891760045e+00 1.111484365340e+01 9.404867706722e+00
Ar 7.694891760045e+00 1.111484365340e+01 1.111484365340e+01
Ar 9.404867706722e+00 8.549879733383e-01 8.549879733383e-01
Ar 9.404867706722e+00 8.549879733383e-01 2.564963920015e+00
Ar 9.404867706722e+00 8.549879733383e-01 4.274939866692e+00
Ar 9.404867706722e+00 8.549879733383e-01 5.984915813368e+00
Ar 9.404867706722e+00 8.549879733383e-01 7.694891760045e+00
Ar 9.404867706722e+00 8.549879733383e-01 9.404867706722e+00
Ar 9.404867706722e+00 8.549879733383e-01 1.111484365340e+01
Ar 9.404867706722e+00 2.564963920015e+00 8.549879733383e-01
Ar 9.404867706722e+00 2.564963920015e+00 2.564963920015e+00
Ar 9.404867706722e+00 2.564963920015e+00 4.274939866692e+00
Ar 9.404867706722e+00 2.564963920015e+00 5.984915813368e+00
Ar 9.404867706722e+00 2.564963920015e+00 7.694891760045e+00
Ar 9.404867706722e+00 2.564963920015e+00 9.404867706722e+00
Ar 9.404867706722e+00 2.564963920015e+00 1.111484365340e+01
Ar 9.404867706722e+00 4.274939866692e+00 8.549879733383e-01
Ar 9.404867706722e+00 4.274939866692e+00 2.564963920015e+00
Ar 9.404867706722e+00 4.274939866692e+00 4.274939866692e+00
Ar 9.404867706722e+00 4.274939866692e+00 5.984915813368e+00
Ar 9.404867706722e+00 4.274939866692e+00 7.694891760045e+00
Ar 9.404867706722e+00 4.274939866692e+00 9.404867706722e+00
Ar 9.404867706722e+00 4.274939866692e+00 1.111484365340e+01
Ar 9.404867706722e+00 5.984915813368e+00 8.549879733383e-01
Ar 9.404867706722e+00 5.984915813368e+00 2.564963920015e+00
Ar 9.404867706722e+00 5.984915813368e+00 4.274939866692e+00
Ar 9.404867706722e+00 5.984915813368e+00 5.984915813368e+00
Ar 9.404867706722e+00 5.984915813368e+00 7.694891760045e+00
Ar 9.404867706722e+00 5.984915813368e+00 9.404867706722e+00
Ar 9.404867706722e+00 5.984915813368e+00 1.111484365340e+01
Ar 9.404867706722e+00 7.694891760045e+00 8.549879733383e-01
Ar 9.404867706722e+00 7.694891760045e+00 2.564963920015e+00
Ar 9.404867706722e+00 7.694891760045e+00 4.274939866692e+00
Ar 9.404867706722e+00 7.694891760045e+00 5.984915813368e+00
Ar 9.404867706722e+00 7.694891760045e+00 7.694891760045e+00
Ar 9.404867706722e+00 7.694891760045e+00 9.404867706722e+00
Ar 9.404867706722e+00 7.694891760045e+00 1.111484365340e+01
Ar 9.404867706722e+00 9.404867706722e+00 8.549879733383e-01
Ar 9.404867706722e+00 9.404867706722e+00 2.564963920015e+00
Ar 9.404867706722e+00 9.404867706722e+00 4.274939866692e+00
Ar 9.404867706722e+00 9.404867706722e+00 5.984915813368e+00
Ar 9.404867706722e+00 9.404867706722e+00 7.694891760045e+00
Ar 9.404867706722e+00 9.404867706722e+00 9.404867706722e+00
Ar 9.404867706722e+00 9.404867706722e+00 1.111484365340e+01
Ar 9.404867706722e+00 1.111484365340e+01 8.549879733383e-01
Ar 9.404867706722e+00 1.111484365340e+01 2.564963920015e+00
Ar 9.404867706722e+00 1.111484365340e+01 4.274939866692e+00
Ar 9.404867706722e+00 1.111484365340e+01 5.984915813368e+00
Ar 9.404867706722e+00 1.111484365340e+01 7.694891760045e+00
Ar 9.404867706722e+00 1.111484365340e+01 9.404867706722e+00
Ar 9.404867706722e+00 1.111484365340e+01 1.111484365340e+01
Ar 1.111484365340e+01 8.549879733383e-01 8.549879733383e-01
Ar 1.111484365340e+01 8.549879733383e-01 2.564963920015e+00
Ar 1.111484365340e+01 8.549879733383e-01 4.274939866692e+00
Ar 1.111484365340e+01 8.549879733383e-01 5.984915813368e+00
Ar 1.111484365340e+01 8.549879733383e-01 7.694891760045e+00
Ar 1.111484365340e+01 8.549879733383e-01 9.404867706722e+00
Ar 1.111484365340e+01 8.549879733383e-01 1.111484365340e+01
Ar 1.111484365340e+01 2.564963920015e+00 8.549879733383e-01
Ar 1.111484365340e+01 2.564963920015e+00 2.564963920015e+00
Ar 1.111484365340e+01 2.564963920015e+00 4.274939866692e+00
Ar 1.111484365340e+01 2.564963920015e+00 5.984915813368e+00
Ar 1.111484365340e+01 2.564963920015e+00 7.694891760045e+00
Ar 1.111484365340e+01 2.564963920015e+00 9.404867706722e+00
Ar 1.111484365340e+01 2.564963920015e+00 1.111484365340e+01
Ar 1.111484365340e+01 4.274939866692e+00 8.549879733383e-01
Ar 1.111484365340e+01 4.274939866692e+00 2.564963920015e+00
Ar 1.111484365340e+01 4.274939866692e+00 4.274939866692e+00
Ar 1.111484365340e+01 4.274939866692e+00 5.984915813368e+00
Ar 1.111484365340e+01 4.274939866692e+00 7.694891760045e+00
Ar 1.111484365340e+01 4.274939866692e+00 9.404867706722e+00
Ar 1.111484365340e+01 4.274939866692e+00 1.111484365340e+01
Ar 1.111484365340e+01 5.984915813368e+00 8.549879733383e-01
Ar 1.111484365340e+01 5.984915813368e+00 2.564963920015e+00
Ar 1.111484365340e+01 5.984915813368e+00 4.274939866692e+00
Ar 1.111484365340e+01 5.984915813368e+00 5.984915813368e+00
Ar 1.111484365340e+01 5.984915813368e+00 7.694891760045e+00
Ar 1.111484365340e+01 5.984915813368e+00 9.404867706722e+00
Ar 1.111484365340e+01 5.984915813368e+00 1.111484365340e+01
Ar 1.111484365340e+01 7.694891760045e+00 8.549879733383e-01
Ar 1.111484365340e+01 7.694891760045e+00 2.564963920015e+00
Ar 1.111484365340e+01 7.694891760045e+00 4.274939866692e+00
Ar 1.111484365340e+01 7.694891760045e+00 5.984915813368e+00
Ar 1.111484365340e+01 7.694891760045e+00 7.694891760045e+00
Ar 1.111484365340e+01 7.694891760045e+00 9.404867706722e+00
Ar 1.111484365340e+01 7.694891760045e+00 1.111484365340e+01
Ar 1.111484365340e+01 9.404867706722e+00 8.549879733383e-01
Ar 1.111484365340e+01 9.404867706722e+00 2.564963920015e+00
Ar 1.111484365340e+01 9.404867706722e+00 4.274939866692e+00
Ar 1.111484365340e+01 9.404867706722e+00 5.984915813368e+00
Ar 1.111484365340e+01 9.404867706722e+00 7.694891760045e+00
Ar 1.111484365340e+01 9.404867706722e+00 9.404867706722e+00
Ar 1.111484365340e+01 9.404867706722e+00 1.111484365340e+01
Ar 1.111484365340e+01 1.111484365340e+01 8.549879733383e-01
Ar 1.111484365340e+01 1.111484365340e+01 2.564963920015e+00
Ar 1.111484365340e+01 1.111484365340e+01 4.274939866692e+00
Ar 1.111484365340e+01 1.111484365340e+01 5.984915813368e+00
Ar 1.111484365340e+01 1.111484365340e+01 7.694891760045e+00
Ar 1.111484365340e+01 1.111484365340e+01 9.404867706722e+00
Ar 1.111484365340e+01 1.111484365340e+01 1.111484365340e+01
