343
L = 18.3798529993
Ar 1.297092551135e+01 9.377842219590e+00 1.134667560727e+01
Ar 5.272906301746e-01 1.702082531187e+01 5.293186631742e+00
Ar 1.277352527153e+01 1.051433333163e+01 1.554545894905e+01
Ar 1.529448420635e+01 5.633542021238e+00 1.765109376096e+01
Ar 1.547432146335e+01 1.763428043559e+01 1.341175843661e+01
Ar 7.972104463601e+00 1.677365276296e-01 1.730154915439e+01
Ar 2.818663239804e+00 3.595816216262e+00 6.435672554465e+00
Ar 1.378204764529e+00 1.392758198770e+01 1.574095098512e+01
Ar 1.310854727585e-01 1.800438341863e+01 7.181218116129e+00
Ar 1.523679090432e+01 4.252888539947e+00 1.054194546711e+01
Ar 1.515769322183e+01 4.033344377208e+00 4.096316753150e+00
Ar 5.407903207304e+00 1.349033234015e+01 6.612201040705e+00
Ar 1.281998631100e+00 5.524785010083e+00 1.365002041595e+01
Ar 5.770265215490e+00 1.098368890233e+01 1.011262049342e+01
Ar 1.797525454564e+00 8.467609756031e+00 9.417784320284e+00
Ar 1.831885107601e+01 2.652206433917e+00 7.636938332604e+00
Ar 4.533271173800e-01 1.697525102122e+01 1.768171383184e+01
Ar 1.281425096495e+00 7.320775543114e-02 1.538501243179e+01
Ar 2.510593738067e+00 1.131883655732e+01 5.366684880119e+00
Ar 4.772632034320e+00 1.737523160230e+01 1.305420780629e+01
Ar 1.194532889226e+01 1.124888613689e+01 1.481867859497e+01
Ar 1.503153992996e+00 1.524608056373e+01 4.767851496428e+00
Ar 9.021293592961e+00 1.245916789211e+01 1.646083288283e+01
Ar 1.161583027368e+00 1.381237670251e+01 1.322178722552e+01
Ar 1.464769440855e+01 1.568103171463e+01 5.006264707216e-01
Ar 2.602500633227e+00 2.251858296134e+00 1.215698462820e+01
Ar 1.152755070952e+01 6.718139547825e+00 1.546095605107e+01
Ar 1.535089867020e+01 1.039230771561e+01 1.175043690757e+01
Ar 6.736863198116e+00 1.323022077260e+01 7.857132468268e+00
Ar 9.742358201219e+00 1.282390937344e+01 1.573187548400e+01
Ar 1.335072469086e+01 6.619772475505e+00 3.687106148989e+00
Ar 1.511631755358e+01 8.723597243870e+00 1.829060948349e+01
Ar 1.617540336238e-01 6.298037362034e+00 1.143078161593e+01
Ar 9.832237922856e+00 5.898094297278e+00 6.339825480998e+00
Ar 6.699268528944e+00 1.830163419697e+01 3.793586412171e-02
Ar 1.092746617951e+01 7.781296511025e+00 1.507358471524e+01
Ar 1.754767516023e+01 1.608359168860e+01 1.525192051810e+01
Ar 1.590139454622e+01 7.336920607175e+00 1.294052621823e+00
Ar 4.484902926697e+00 9.571921958416e-01 5.418106382970e+00
Ar 2.963653501792e+00 4.955050290134e+00 1.542795980487e+01
Ar 4.326746363694e+00 5.919185384799e+00 1.027932001228e+01
Ar 1.515065591125e+01 1.387643279461e+01 9.192559547726e+00
Ar 2.052221584626e+00 2.810612577822e+00 1.535707551514e+01
Ar 2.143750850103e+00 8.503488971326e+00 1.834806761014e+01
Ar 3.072059492560e+00 1.032326169925e+01 9.434773479499e+00
Ar 1.116299912493e+01 1.513458625406e+00 4.512887343010e+00
Ar 1.644518471651e+01 1.092137658710e+01 6.701483838974e+00
Ar 1.651184497053e+01 1.381997408867e+01 6.029581381368e+00
Ar 1.753664402314e+01 1.645199101351e+01 5.124997563715e+00
Ar 8.043033488648e+00 1.429118477180e+00 2.064177124071e+00
Ar 2.888873459903e-01 1.373548885466e+01 1.406152141217e+01
Ar 2.774604463858e+00 4.037117706984e+00 2.150130628702e+00
Ar 1.239341736499e+01 1.313078729816e+01 1.119766333314e+01
Ar 5.903270693846e+00 1.723528812601e+01 9.154907834837e+00
Ar 8.954182479288e-01 1.423531742181e+01 1.731824808865e+01
Ar 1.401860606757e+01 1.800815774522e+01 1.143456723598e+01
Ar 2.447292537163e+00 8.291707510423e+00 1.034550224459e+01
Ar 1.246553957618e+00 1.780711195162e+00 3.816463473485e+00
Ar 7.861233523062e+00 1.254575500899e+00 8.669144110004e-01
Ar 6.533120279934e+00 9.689147181224e+00 2.179055340273e-01
Ar 8.644000214736e+00 2.716063348684e-01 3.902095993298e+00
Ar 7.307197799959e-01 7.780684592672e-02 1.101200759795e+00
Ar 9.284645447483e+00 1.464993538261e+01 1.862587750090e+00
Ar 1.373754183463e+01 4.898403580935e-01 1.198749957549e+01
Ar 1.337335120236e+01 1.860491247264e+00 1.332552100284e+01
Ar 2.584162422495e+00 2.957282506263e+00 1.040513930004e+01
Ar 3.801670630981e+00 1.225869673287e+01 1.020619375284e+01
Ar 6.091041561466e+00 5.418867840584e+00 1.393535861517e+00
Ar 1.554213061773e+01 1.374596625142e+01 2.051992870277e+00
Ar 4.484527784619e+00 5.138547398201e+00 1.520480462824e+01
Ar 1.082078485389e+01 1.651397183189e+01 1.552720375896e+01
Ar 1.172581728474e+01 1.326499200963e+01 1.192817775649e+01
Ar 8.623376336627e+00 1.384646793515e+01 2.341260608370e+00
Ar 9.739897052518e+00 4.672163669146e+00 1.544495423489e+01
Ar 2.092980668321e+00 9.032043503500e+00 4.969889874842e+00
Ar 6.287642353411e+00 5.340223157542e+00 3.717297854246e+00
Ar 1.028660081456e+01 1.667908283468e+01 7.347508601982e-01
Ar 2.665641962366e+00 9.356184295140e+00 6.078882696145e+00
Ar 1.168676181116e+01 3.168053469495e+00 4.890389673874e+00
Ar 1.311294632962e+01 1.442048094195e+01 2.235607940264e+00
Ar 1.823909423842e+01 1.339886334163e+00 6.967256591769e+00
Ar 1.232602750164e+01 1.664781845629e+01 1.623422919557e+00
Ar 1.609011744291e+01 1.390671070941e+01 1.737573306294e+01
Ar 1.089477075152e+01 1.219261265986e+01 1.669490281381e+01
Ar 1.594060219586e+01 9.640778557416e+00 9.339269907008e+00
Ar 1.049283804535e+01 2.556434733133e+00 1.205952172119e+01
Ar 1.489366558181e+01 1.813513940839e+01 6.760853121876e+00
Ar 3.279491382272e+00 4.616527544989e+00 1.285594795031e-01
Ar 1.379198070550e+01 1.820032641744e+00 1.092474168799e+01
Ar 1.725045782382e+01 1.442888557989e+01 1.154615170224e+01
Ar 9.440296203552e+00 1.825925510182e+01 1.605041228105e+01
Ar 1.772952765969e+01 1.354567519835e+01 1.164273408332e+01
Ar 1.286223320014e+01 1.651390965939e+01 1.763275889142e+01
Ar 1.226941851315e+01 1.458944499966e+01 4.876051012010e+00
Ar 1.423152709430e+01 2.129452136186e+00 6.277021963402e+00
Ar 5.338247855976e+00 9.498036097783e+00 8.827095447280e+00
Ar 8.663893407719e+00 2.871984346239e+00 1.254652145538e+01
Ar 1.165894777905e+01 1.089204399071e+01 1.375966981740e+01
Ar 1.376137873292e+01 1.400031060769e+01 1.229735674352e+01
Ar 1.243840127441e+01 1.015096811914e+01 6.402240966236e+00
Ar 7.550147125235e+00 1.620265101238e+01 1.521006041656e+01
Ar 3.707113829719e+00 1.176096575215e+00 1.880406060684e+00
Ar 1.826432928523e+01 1.391198905009e+01 2.954154548152e+00
Ar 1.145424426741e+01 1.387105496001e+01 1.474444778676e+01
Ar 1.585801804678e+01 1.729294722969e+01 2.544274719712e+00
Ar 1.837097221401e+01 1.298431657404e+01 4.865895354751e+00
Ar 4.689081913704e+00 1.251396971382e+01 2.000495082854e+00
Ar 1.480440472577e+01 1.477098283847e+01 1.756380014072e+01
Ar 3.856739389350e+00 1.581992763642e+01 8.585628611911e+00
Ar 8.637527005011e+00 1.664535069759e+01 1.089682797452e+01
Ar 1.122906998035e+01 8.834167744922e+00 1.523460666366e+01
Ar 1.056453956470e+01 8.967950035425e+00 9.526293611110e+00
Ar 4.898388316062e+00 7.220537984254e+00 1.344604537609e+01
Ar 1.794290032844e+01 1.341515993363e+01 1.279289152057e+01
Ar 1.417874826209e+01 2.528745972116e+00 4.272105230958e+00
Ar 2.471407734167e+00 9.567624891998e+00 1.023882850349e+00
Ar 9.311622309539e+00 1.188164553952e+01 2.670829709881e+00
Ar 1.438304097542e+01 1.812365352416e+01 7.446301759120e-02
Ar 1.812309010927e+00 8.662908457349e+00 7.579445562091e+00
Ar 8.555891071883e-01 2.405678257042e+00 4.512641525502e-01
Ar 9.044020113870e+00 6.420850510844e+00 5.888882846416e+00
Ar 1.812268330811e+01 7.798046971993e+00 4.721089304053e-01
Ar 1.169761311194e+01 9.678941959515e+00 7.755896915506e+00
Ar 6.357272251373e+00 9.205207524519e+00 1.116374034959e+00
Ar 1.255265967189e+01 1.478614106091e+01 1.746855790258e+01
Ar 1.176393355200e+01 8.910063556805e+00 1.308615348606e+01
Ar 1.749046891351e+00 2.879968159117e+00 6.569311411502e+00
Ar 4.926714346413e+00 1.052892772087e+01 3.520633345966e+00
Ar 1.348187879304e+01 1.226328822316e+01 1.431220839031e+01
Ar 1.417348825746e+01 1.394150492641e+01 1.818498130816e+01
Ar 2.280561120168e+00 1.227534781596e+01 1.778197310625e+01
Ar 1.673199454859e+01 9.665688860778e+00 8.077540761551e+00
Ar 3.672049410033e+00 6.739027728111e+00 1.761267739906e+01
Ar 3.581066813909e+00 1.131565414647e+01 1.402235409519e+01
Ar 1.023041700149e+01 1.149937006623e+01 1.331792319052e+01
Ar 1.539889587209e+01 1.392829203348e+01 1.019851150198e-01
Ar 1.317442763660e+01 3.323301416311e+00 4.342501772155e+00
Ar 7.602878417006e+00 1.294946067196e+00 3.273505052090e+00
Ar 3.080618032389e+00 7.366476973230e+00 4.941201613465e+00
Ar 6.309936757165e+00 4.858143038875e-01 1.617304731151e+01
Ar 1.545836083147e+01 1.824228334032e+01 9.473967671295e+00
Ar 1.483321690914e+01 1.760048020160e+00 1.071427048491e+01
Ar 1.749739388794e+01 1.246100248537e+01 1.268662667530e+01
Ar 5.804738775991e+00 8.285452744955e+00 1.906732225056e+00
Ar 1.704400684298e+01 5.492575855624e+00 1.527285026916e+01
Ar 1.520637676964e+01 2.925050258073e+00 5.742066238737e+00
Ar 7.651723734541e+00 1.606326775633e+01 9.320038679535e+00
Ar 9.922533846326e+00 1.193315875364e+01 1.643734786200e+01
Ar 4.945505290457e+00 6.406308859644e+00 2.255171795542e+00
Ar 9.679498081530e+00 1.537032661346e+01 3.309503333027e+00
Ar 1.833116783008e+01 5.315622752387e+00 8.734937104286e+00
Ar 1.451603204896e+01 1.733709218445e+00 2.173388286529e+00
Ar 2.278323410409e+00 4.667627180885e+00 1.020424262048e+01
Ar 1.432017698199e+01 9.940780600476e+00 2.598473303465e+00
Ar 5.580254629881e+00 1.077556935539e+00 7.811610936402e+00
Ar 5.588266463336e+00 1.618972320697e+00 1.479968958417e-01
Ar 7.425265451478e+00 5.140612391200e+00 7.301786943003e+00
Ar 2.599812423066e+00 7.958691289908e+00 1.307243136733e+00
Ar 1.097498531483e+01 5.075518320675e+00 1.537994979678e+01
Ar 1.734424797795e+01 5.196528416783e-01 6.507646909949e+00
Ar 1.395590844415e+01 1.660373522925e+01 8.680389590539e+00
Ar 2.987097304236e+00 1.115010457313e+01 8.680383667015e+00
Ar 1.288340289411e+01 9.792101437428e+00 1.641840042731e+01
Ar 2.148343851569e+00 8.236437186760e+00 5.798677869812e+00
Ar 5.687207870664e+00 4.346452372795e+00 1.532111496208e+01
Ar 3.206009911979e+00 1.771931542919e+01 1.070395152311e+01
Ar 1.302814666880e+00 1.325464551923e+01 6.429998237395e+00
Ar 9.821865229639e+00 6.084710005931e+00 2.638583195042e+00
Ar 9.681199287601e+00 4.439674788645e+00 1.827588044629e+01
Ar 4.634926759585e+00 2.967741836388e+00 3.935214784711e+00
Ar 3.473799980295e+00 1.562412847789e+00 1.646299639245e+01
Ar 1.040634331719e+01 5.496364560863e+00 1.891195265175e+00
Ar 1.215571152835e+01 8.816903749192e+00 1.335815075698e+00
Ar 1.401428064151e+00 2.982707919858e+00 1.025804475740e+01
Ar 1.426437728387e+01 8.275350817370e+00 1.318098329928e+01
Ar 1.324388412810e+01 1.343418679329e+01 6.640099356217e+00
Ar 1.810686073555e+01 1.074254688813e+01 9.759064447610e+00
Ar 8.923799647328e+00 1.420285193969e+00 3.347917225532e+00
Ar 4.924938637607e+00 7.381645359701e+00 2.006595876696e+00
Ar 1.292789281754e+01 6.848013098285e+00 1.856614899834e+00
Ar 3.240400157837e+00 1.180626556837e+01 1.590567719725e+01
Ar 1.650548700399e+01 1.317358521323e+01 1.301817186887e+01
Ar 1.946745088336e+00 1.396084757395e+01 1.771865186514e+01
Ar 6.372785515512e+00 1.138862187789e+01 1.384578185202e+01
Ar 1.437168796625e+01 2.583378984063e+00 9.643150946546e+00
Ar 1.769438608589e+01 1.496002617928e+01 1.681189483282e+01
Ar 5.127955277143e+00 1.762532055796e+00 4.392024076503e+00
Ar 7.593582645671e+00 2.506262259117e-01 1.344900944492e+00
Ar 1.438133217947e+01 6.446856368216e+00 5.781172664275e+00
Ar 6.279999641359e-01 5.257502979710e+00 1.461752887531e+00
Ar 2.113975999101e+00 1.744327024237e+01 1.241936792052e+01
Ar 6.186106816203e+00 4.451188885586e+00 5.494548014799e+00
Ar 2.507271899671e+00 2.699403206365e+00 1.834790892669e+01
Ar 2.767744328405e+00 1.236708075420e+01 1.306557483927e+01
Ar 1.540731525208e+01 1.818136031311e+01 8.381451846238e+00
Ar 8.203016626453e+00 5.970222931501e-02 5.970115636712e+00
Ar 6.558837517249e+00 7.164226910434e+00 9.311679089079e+00
Ar 1.829694215597e+01 1.325806873959e+01 9.663648141622e+00
Ar 1.216079808059e+01 7.887333212214e+00 2.202003083223e+00
Ar 7.185825408487e+00 1.618207336932e+01 1.127117162106e+01
Ar 1.830490319951e+01 3.112966406745e+00 1.551367631546e+01
Ar 1.662827704502e+01 2.778230678557e+00 1.140143642324e+01
Ar 4.045294529512e+00 1.645826111124e+01 6.515057552516e+00
Ar 5.190976795701e+00 1.170076327931e+01 1.717063407793e+01
Ar 1.028805381047e+01 7.231356003814e+00 5.283500970794e-02
Ar 7.090497980399e+00 1.359836994762e+01 1.545520081650e+01
Ar 1.547526466921e+01 7.976719291152e+00 1.095032841215e+01
Ar 8.540781797881e-01 1.782334017104e+01 1.635737147701e+01
Ar 8.772303924585e+00 2.003677743372e+00 1.397213780655e+01
Ar 1.828849301090e+01 1.605980952852e+00 1.526765635986e+01
Ar 1.018541353598e+00 8.161944402557e+00 1.070681190488e+01
Ar 1.515871319744e+01 1.639864890391e+01 8.399434091450e+00
Ar 3.895421456163e+00 3.752899978682e+00 8.271973962699e+00
Ar 5.805665070652e-01 1.627856741655e+01 4.428017743617e+00
Ar 1.337754274489e+00 1.193911292355e+01 5.846815099537e+00
Ar 5.845297547549e+00 1.365401833303e+01 9.206512389308e+00
Ar 1.650787357090e+01 1.324652195282e+01 6.774613504373e-01
Ar 1.522674481437e+01 8.616571058785e+00 4.701912715929e+00
Ar 5.847877736996e+00 1.027190339518e+01 1.095948573551e+01
Ar 5.072691273846e+00 1.236729469181e+01 9.597288925081e+00
Ar 4.653943261225e+00 1.404966105172e+01 1.487208256401e+01
Ar 2.881266974486e+00 5.236559459420e-01 1.609079111876e+01
Ar 1.632455012805e+01 1.521686536464e+01 1.469703530451e-01
Ar 1.013713091893e+01 6.991392385808e+00 8.846413297251e+00
Ar 1.510030575319e+01 6.285588473119e-01 1.170100083881e+00
Ar 8.841268249211e+00 1.579906707037e+01 1.755464502730e+01
Ar 1.437557091043e+00 2.135920731042e-03 1.006266097955e+01
Ar 1.548756474574e+01 1.191054125819e+01 1.057925011488e+01
Ar 1.716227390877e+01 7.290364216799e+00 4.235272794482e+00
Ar 4.548291428839e+00 1.532658790023e+01 7.483722612614e+00
Ar 1.537633550053e+01 9.781290726027e+00 1.688391260066e+01
Ar 1.227234452305e+01 5.001543231451e+00 9.841445654865e+00
Ar 7.819398696954e+00 3.325712449289e+00 1.198356578501e+01
Ar 7.326911885674e+00 8.843826040520e+00 3.764661551526e-01
Ar 1.137253233419e+01 1.365751616939e+01 7.977148870876e-01
Ar 2.904240547347e+00 1.692816203785e+01 3.362766563081e+00
Ar 5.181514383710e+00 1.196390695702e+01 4.386807675284e+00
Ar 4.393471377967e+00 4.479046322997e+00 4.034997622768e+00
Ar 1.575673044564e+01 1.286212578211e+01 1.184529752950e+00
Ar 1.190781674753e+01 1.823909079170e+01 2.616358223764e+00
Ar 1.258156469025e+01 8.739925510003e+00 8.539499175795e+00
Ar 6.212319967093e+00 1.507015880608e+01 3.812424605680e+00
Ar 1.179921753447e+01 6.888221290021e+00 4.081681926465e+00
Ar 1.623859445008e+01 1.628542946319e+01 1.597750735175e+00
Ar 4.161589323710e+00 1.708964901992e+01 6.514653576827e-01
Ar 9.209327960566e+00 9.986022548499e+00 1.205236926714e+01
Ar 1.412132012554e+01 1.321054063398e+01 2.962698043605e+00
Ar 1.331059824710e+01 1.152381309095e+01 5.380792706957e+00
Ar 7.192899638689e+00 1.391203065142e+01 9.955044663992e+00
Ar 1.945115695437e+00 3.852749305659e+00 6.150002548504e+00
Ar 6.460325119146e+00 1.400539962749e+01 1.418914330190e+01
Ar 8.995550962145e+00 1.030842989643e+01 5.281280516747e+00
Ar 5.695995015998e+00 7.033185917856e+00 3.771588712557e+00
Ar 1.559742330017e+01 2.226395208684e+00 6.634761312098e+00
Ar 7.872488598246e-01 6.683555813157e+00 8.518707379989e+00
Ar 4.075540547002e+00 6.040746907839e+00 1.281181068351e+01
Ar 1.452617806988e+01 6.319249773383e+00 1.311158322276e+01
Ar 7.167588496881e+00 1.533438430035e+01 1.736455080667e+01
Ar 1.779125542519e+01 1.050352037195e+01 6.730151352013e+00
Ar 1.151078572582e+01 1.186257409885e+01 9.510003418082e+00
Ar 1.562048913571e+01 1.283406434390e+01 1.495858442592e+01
Ar 4.415624318810e+00 1.539906700296e+00 1.213715055556e+01
Ar 8.228551602983e+00 3.354239497348e+00 6.487005620991e+00
Ar 1.619063020845e+01 1.657120171502e+00 1.717569985618e+01
Ar 4.251937414881e+00 1.674928626396e+01 7.950808364740e+00
Ar 1.460223479684e+01 1.278383538649e+00 5.444466824646e+00
Ar 3.030084619971e+00 3.564308601315e+00 1.749009926302e+01
Ar 2.159586018933e+00 6.918204418476e-01 2.633299563028e+00
Ar 4.035934730186e+00 5.516211281043e-01 8.215486209879e-01
Ar 1.503805496626e+01 3.945749469830e+00 1.665261953434e+01
Ar 1.296917986879e+01 4.202456040303e+00 1.058902734937e+01
Ar 6.787854737017e+00 1.830099318219e+01 1.540016019256e+01
Ar 1.670511041374e+01 2.012925404142e+00 1.406701389872e+01
Ar 1.806396058569e+01 7.540784613467e+00 1.307301689600e+01
Ar 3.079876239033e+00 2.666785789192e-01 1.131917581223e+01
Ar 1.243770955049e+01 1.496925135775e+01 8.890477783753e-01
Ar 9.001512878482e+00 1.437953462443e+01 1.421564773909e+01
Ar 8.949621490343e+00 2.282169292730e+00 1.650371760005e+01
Ar 1.298916799767e+01 1.693372625642e+01 8.755886581968e+00
Ar 9.495327625523e+00 5.971121457129e+00 1.664189245698e+01
Ar 1.446174368073e+01 7.748126159353e+00 6.560335786970e+00
Ar 1.085616173598e-01 1.194253579208e+01 7.748695343346e+00
Ar 1.680141434003e+01 1.549152611326e+01 1.101351482209e+00
Ar 1.011369521676e+01 1.744603507515e+01 5.598342892812e+00
Ar 7.938222350249e+00 1.818286407671e+01 9.811284546073e+00
Ar 1.730157282052e+01 1.571103377048e+01 3.083782588927e+00
Ar 1.032256795306e+01 1.377129501970e+01 1.551139521225e+01
Ar 1.193248889413e+01 1.422808337740e+01 1.655155910503e+01
Ar 3.778758541706e+00 1.691163925084e+01 1.466255723081e+01
Ar 1.000715533049e+01 4.963485784566e+00 1.388903294003e+01
Ar 3.965881202154e+00 4.508174237084e-01 1.699508649733e+01
Ar 1.528985549975e+01 1.096234808293e+01 3.595894193282e+00
Ar 1.557767280918e+01 1.524447545825e+01 5.971389175678e+00
Ar 1.065177529412e+01 3.013573163857e+00 5.345958296820e+00
Ar 1.123918642387e+01 1.283712363373e+01 1.836059239983e+01
Ar 1.046600147339e+01 1.549646852795e+01 5.837139168145e+00
Ar 1.406852929298e+01 1.708364748205e+00 1.618967708170e+01
Ar 1.660170690151e+01 5.710337474522e-01 8.120109868078e+00
Ar 1.065422424460e+01 1.492462403893e+01 1.447877329280e+00
Ar 5.479490771807e+00 7.911794473916e+00 7.570766585793e+00
Ar 1.728404095553e+01 7.092126809259e+00 1.128831410090e+01
Ar 1.214572736947e+01 1.149006388085e+00 8.551212548388e+00
Ar 1.555702322151e+01 8.646814704240e+00 9.791696473711e-01
Ar 1.355403565147e+01 4.155533233630e+00 4.907259701057e+00
Ar 1.463079007626e+01 1.362203408222e+01 1.322845782902e+01
Ar 1.270763817725e+01 1.150643651638e+01 1.202725856784e+01
Ar 1.725687694562e+01 1.188912134227e+00 7.228548871518e+00
Ar 1.157487604736e+01 8.442093385990e-01 5.487049680642e+00
Ar 4.491101911528e+00 1.966764145242e+00 7.034079415173e+00
Ar 3.679298799293e+00 1.268655761665e+01 1.247666785528e+01
Ar 5.351114116451e+00 5.850635862566e+00 9.196191023935e+00
Ar 9.069480877386e-02 1.488493078560e+01 1.409145202531e+01
Ar 4.109030389901e+00 1.070593920504e+01 1.538257358346e+01
Ar 6.405610052283e+00 7.965375489365e+00 1.316891890137e+01
Ar 3.912925943761e+00 2.318435961873e+00 2.270251507451e+00
Ar 1.692022242476e+01 5.164509235231e+00 2.032790507054e+00
Ar 1.701007891894e+01 1.529831625339e+01 4.706180428560e+00
Ar 1.373032033891e+01 1.648597191061e+01 1.308636405083e+01
Ar 1.452322987473e+01 1.749436062976e+01 1.763323344868e+01
Ar 1.523867714259e+01 2.592137996900e+00 1.789635528518e+00
Ar 1.174247984711e+01 1.712490160505e+00 6.666113814785e+00
Ar 2.183559282327e+00 3.187837777122e+00 3.711822552542e+00
Ar 1.029735088941e+01 1.777620635101e+01 9.834064472669e+00
Ar 1.028887551545e+00 4.737339847517e+00 8.513213616850e+00
Ar 3.975388299087e+00 1.312309011105e+01 1.799901565929e+00
Ar 1.041754247521e+01 1.812197746372e+01 4.483518223911e+00
Ar 1.655408780697e+01 7.685975510101e+00 6.036307187324e+00
Ar 1.486612048477e+01 1.601981003586e+01 1.677667058686e+01
Ar 4.583964767993e+00 1.262548271866e+00 8.478342916895e+00
Ar 5.011924595763e+00 1.086347904940e+01 9.152761448737e+00
Ar 1.222757840643e+01 1.054094881348e+01 4.106094945180e+00
Ar 1.498264833900e+01 1.356336893030e+01 1.460766910632e+01
Ar 1.202859295530e+01 1.397848972027e+01 8.932992512073e+00
Ar 1.131584478059e+01 1.475776253136e+01 7.455599138546e+00
Ar 1.774114585553e+01 3.848223061678e+00 5.883931405796e+00
Ar 1.519451097754e+01 1.658730083528e+01 9.899789261833e+00
Ar 1.547935367442e+01 1.019655684532e+00 6.687393520314e+00
Ar 1.698986055409e+01 9.064771747835e+00 9.757523131597e+00
Ar 7.713135297001e+00 8.927290170836e+00 1.071104601477e+01
Ar 5.029095607406e-01 1.501230209484e+01 1.264822663903e+01
Ar 1.155635364174e+01 1.582495275100e+01 1.680786690808e+01
Ar 1.204771878624e+01 3.462806097563e+00 8.803824998278e+00
Ar 8.046261841011e+00 9.912294373642e+00 1.787488849961e+01
