343
L = 18.1813926155
Ar 5.708815507867e+00 1.841788134924e+00 3.012659634742e-01
Ar 6.118467809724e+00 1.415381726357e+01 6.140333954637e+00
Ar 1.662529375258e+00 7.366237558041e+00 7.151569743814e+00
Ar 6.992562433616e+00 8.243916956384e+00 8.167706023840e+00
Ar 7.754449050476e+00 1.735291668111e+00 8.279701609645e+00
Ar 1.873950068949e+00 3.020398448837e+00 1.707349632932e+01
Ar 7.513203371354e+00 1.599337707202e+01 1.149904289738e+01
Ar 1.487244451086e+01 8.490084951220e+00 1.398336760736e+01
Ar 1.034459857814e+01 4.735449131944e+00 1.733005184082e+01
Ar 3.471487900493e+00 7.440662573666e+00 7.249449777301e+00
Ar 1.253148033976e+01 7.030084837563e+00 2.569852175955e-01
Ar 8.896914831958e+00 1.272138914449e+01 7.408915828985e+00
Ar 8.071373088158e+00 1.084191033208e+01 1.572653636162e+01
Ar 1.549162917528e+01 4.590794873398e+00 1.603687884180e+01
Ar 1.731789567007e+01 1.797502361071e+01 1.198380957329e+01
Ar 1.862855233399e+00 1.202007941452e+01 3.724821281732e+00
Ar 8.811915182914e+00 1.739684747709e+01 5.454696439696e+00
Ar 1.272275943847e+01 5.638257664014e+00 2.630640047238e+00
Ar 1.752632112335e+01 4.544043850656e+00 1.748393761150e+01
Ar 1.757048630560e+01 2.406774175210e-01 4.901281492264e-01
Ar 4.975842389723e+00 5.499777051133e+00 2.618832896100e-01
Ar 4.379754525063e-01 1.302630958901e+01 1.573795591564e+01
Ar 5.058140421208e+00 1.632004857259e+01 5.540194591683e+00
Ar 4.992654658816e+00 5.498460648908e+00 1.228615284599e+01
Ar 1.656666160787e+01 5.271476042428e+00 4.281202476905e+00
Ar 8.313449474049e+00 8.235546337983e+00 4.257344110127e-01
Ar 6.945551684940e+00 1.615076969382e+01 6.421282746860e+00
Ar 5.712812419791e+00 1.704493848784e+01 1.377974217983e+01
Ar 7.551806372579e+00 5.589685141138e+00 1.680894847554e+01
Ar 3.622439895264e+00 1.748563284948e+01 1.514362533155e+01
Ar 9.649144719859e+00 5.724450831362e+00 4.623760677243e+00
Ar 3.356687590924e+00 1.032896991132e+01 1.150681771937e+01
Ar 1.466208002233e+00 1.159626954001e+01 5.767613282554e+00
Ar 3.564865886211e+00 8.002068727690e+00 6.143127998153e+00
Ar 1.279066071465e+01 4.486011028601e+00 1.344662343807e+01
Ar 1.573135775708e+01 1.457117537484e+00 2.601281675367e+00
Ar 4.308080237700e+00 5.788247883620e+00 1.278227857082e+00
Ar 9.975863459735e-01 1.021954874320e+01 1.493710270165e+01
Ar 1.117555861187e+01 1.331728183368e+01 5.135803081441e+00
Ar 1.431379862947e+01 1.413147450086e+01 4.880385397751e+00
Ar 1.528769962407e+01 1.620605518249e+01 1.121556503428e+01
Ar 9.461718766453e-01 6.461372336681e-01 4.564268900685e+00
Ar 7.710642456475e+00 1.745965403756e+01 1.765704644196e+01
Ar 1.317278119219e+01 8.064820704740e+00 4.468603158183e+00
Ar 6.564082862361e+00 1.771618681639e+01 4.447122693156e-02
Ar 1.567267474393e+01 1.412416697843e+01 4.708654643765e+00
Ar 9.015991612153e+00 1.182522899278e+00 1.187998999659e+01
Ar 1.138317064032e+01 2.610551482907e+00 9.916829953601e+00
Ar 1.535689641037e+01 5.924409677786e+00 4.090567868549e+00
Ar 4.424268584116e-01 1.092905303703e+01 1.603869005536e+01
Ar 9.963299363284e+00 1.353319153270e+01 1.708848347908e+01
Ar 1.406216589502e+01 7.146811581005e+00 9.259222056145e+00
Ar 1.105619681058e+01 1.517368960672e+01 1.450639728357e+01
Ar 5.060596478678e-01 1.350556614978e+01 1.367404913880e+01
Ar 1.742043298277e+01 9.823780163846e+00 8.868401848563e+00
Ar 1.410402309831e+01 1.180156820352e+01 1.324524935181e-01
Ar 1.757332511269e+01 1.331562309650e+01 1.681298523629e+00
Ar 9.442645650636e+00 1.161145578270e+01 1.158139192651e+01
Ar 1.059009673948e+01 1.807129799050e+01 1.583776425104e+01
Ar 1.524140880710e+01 1.190438955333e+00 1.785987893857e+01
Ar 8.622383357895e+00 4.675934416309e-01 1.084936540644e+01
Ar 1.124764068046e+01 1.538627425329e+01 1.681167084175e+01
Ar 1.483868579106e+01 1.464659592793e+01 1.523052707077e+01
Ar 1.191902140278e+01 2.758783908687e+00 3.670640322370e-01
Ar 8.328694376528e+00 6.750501868570e+00 7.210115531352e+00
Ar 6.372709006670e+00 1.118984639021e+01 1.388080844566e+01
Ar 1.809422283946e+01 1.793414768398e+01 1.421187617567e+01
Ar 6.498913611540e+00 1.738203306631e+01 4.036945165554e+00
Ar 1.415415888282e+01 2.195231280994e+00 5.265839978071e+00
Ar 3.705077247067e+00 1.357911919500e+01 1.007763227546e+01
Ar 1.592747809294e+01 2.230817136917e+00 1.408189556503e+01
Ar 8.997704309949e+00 1.194552332287e+01 1.410354380429e+01
Ar 1.297760886454e+01 4.521060708485e+00 1.504336772317e+01
Ar 9.412255700413e+00 9.240496143273e+00 1.239231071055e+01
Ar 5.076943232136e+00 1.271640069735e+01 1.564861427160e+01
Ar 1.075604642565e+01 7.144702669901e+00 1.754507478695e+01
Ar 8.412776469893e+00 1.102672481332e+01 4.774197466680e+00
Ar 3.350075109332e+00 3.958033365663e+00 8.118835853098e-01
Ar 5.173862140282e+00 7.737369218927e+00 2.846743445203e+00
Ar 9.875259118732e+00 1.428366911701e+01 5.102873725095e+00
Ar 1.400493843704e+01 1.085250839749e+01 4.353025398756e+00
Ar 1.669341946885e+01 2.259986142721e+00 1.016039440838e+01
Ar 1.137874739010e+01 1.926327397410e+00 6.284763233503e+00
Ar 7.814959169867e+00 1.706321938395e+00 3.145202101181e+00
Ar 1.150421179871e+01 5.254910382679e+00 1.012505989502e+01
Ar 1.797578200983e+01 6.963121929674e+00 7.003833541474e-01
Ar 1.771256725196e+01 6.000163077842e+00 1.451719702594e+01
Ar 3.309120084474e+00 1.130117319176e+01 9.326289576263e+00
Ar 1.147203341203e+01 7.222701047285e+00 2.014528838962e+00
Ar 1.077557711624e+01 6.926499708529e+00 1.044327792819e+01
Ar 1.097657087506e+01 7.848669847151e+00 6.075112535163e+00
Ar 6.151394895671e+00 5.555907037082e+00 1.156797428385e+01
Ar 1.055573822298e+01 1.135123152979e+01 6.813459621831e-03
Ar 6.987353338763e+00 1.398959923210e+01 1.316483233599e+01
Ar 1.304874154187e+01 1.044127581311e+01 8.730340520839e+00
Ar 1.765886398338e+01 4.733686678354e+00 1.220355208353e+01
Ar 7.493283569516e+00 1.210981797479e+00 4.118357395813e+00
Ar 1.796660202608e+01 2.356848579449e+00 1.033706933555e+01
Ar 1.124934667252e+01 1.206844750235e+00 1.767634295580e+00
Ar 1.310075461452e+00 1.378640244599e+01 1.803614137731e+01
Ar 6.872040554012e+00 1.276112443005e+01 1.606825334131e+01
Ar 6.015043719949e+00 1.304572941468e+01 8.078511760088e-03
Ar 1.384195348420e+01 1.412233685641e+01 1.700888234039e+01
Ar 1.245782474626e+01 1.557076066994e+01 1.466560318503e+00
Ar 5.714523021051e+00 6.855036202765e+00 2.530358111063e+00
Ar 3.358292095326e+00 1.473578018866e+01 1.085976073544e+01
Ar 1.914529720533e+00 5.669489167308e-01 2.567213560072e+00
Ar 6.367477832852e+00 2.898117948492e+00 6.618455422700e+00
Ar 1.070600850392e+01 1.664210639889e+01 1.555680607966e+00
Ar 1.141738181384e+00 1.208199325404e+01 1.791966667493e+01
Ar 1.364969140851e+01 6.319526763309e+00 6.866707694277e+00
Ar 6.590014456108e+00 6.097791797544e+00 4.544311472470e+00
Ar 7.259796578359e+00 1.388195516639e+01 9.100223287960e+00
Ar 1.623377756019e+01 1.755290114324e+01 9.339175176107e+00
Ar 1.750687130298e+01 7.407511237479e+00 5.905024698303e+00
Ar 1.248994128998e+01 1.234058502568e+01 1.570213225096e+01
Ar 4.284396818729e+00 1.167604571896e+01 5.462235796626e+00
Ar 1.362487887282e+01 7.034105251158e+00 1.526867458085e+01
Ar 7.577695196599e+00 8.043650794438e+00 1.635111950431e+01
Ar 3.412230336571e+00 1.399270603817e+01 1.681037551681e+01
Ar 9.108880334936e+00 2.894271828072e+00 7.811522593767e+00
Ar 1.427585658295e+01 7.878160895138e+00 4.963793323112e+00
Ar 3.927007059932e+00 1.406043009669e+01 1.584464429429e+01
Ar 8.197913626738e+00 1.310562095900e+01 1.105132390965e+01
Ar 4.023449990465e+00 1.233151322943e+01 1.365835525890e+01
Ar 2.220626428144e+00 1.348122889058e+01 3.644612214729e+00
Ar 1.452023891812e+01 1.522546116779e+01 8.387972163624e+00
Ar 3.668327797697e+00 9.202401748446e+00 5.876633724118e+00
Ar 1.581182575377e+01 8.747645366197e+00 1.459914497853e+01
Ar 7.678142782011e+00 9.328323462999e+00 1.386628351609e+01
Ar 1.250833902509e+01 9.178236407753e+00 1.129644983521e+01
Ar 1.142375124752e+01 1.603681749788e+01 8.151818780571e-01
Ar 7.500155687367e+00 3.042508144099e+00 3.319346486917e+00
Ar 1.464141936407e+01 1.032199390221e+00 5.153827196265e+00
Ar 1.256023115820e+01 3.221100802364e-01 4.023963766244e+00
Ar 5.731907427198e-01 1.048208627924e+01 3.843194869818e+00
Ar 1.407648856932e+01 1.862806469366e+00 3.949811606186e+00
Ar 1.675624419490e+01 6.962710523966e+00 4.208634029567e+00
Ar 1.448303030481e+01 1.705085482576e+01 3.259953858210e+00
Ar 1.018310981829e+01 9.536905837772e+00 1.095816985339e+01
Ar 9.593649999279e+00 1.330670738980e+01 1.578279515262e+01
Ar 1.711094645792e+01 7.669455692303e+00 1.759170183026e+01
Ar 8.955603549984e+00 9.141988142740e+00 7.556467155313e-01
Ar 1.197301964757e+00 8.567159865504e+00 1.174142623753e+01
Ar 1.050249245451e+01 1.767218998132e+01 1.973429269444e+00
Ar 1.554613325966e+01 1.799552113967e+01 1.698527996240e+01
Ar 1.129967026131e+01 1.284025892766e+00 1.717597357730e+01
Ar 1.482481042489e+01 1.326573114613e+00 1.078216306220e+01
Ar 8.693633546405e+00 5.319103303606e+00 3.848846343621e+00
Ar 9.929986726232e+00 7.774027166068e+00 1.076117970045e+01
Ar 1.274113466661e+01 6.355471971163e+00 1.558841790189e+01
Ar 2.761438452788e+00 7.337833302331e-01 3.233295092648e+00
Ar 5.333469839514e-02 4.760441279344e+00 5.717772631010e+00
Ar 7.097559184812e+00 4.102316759893e+00 1.159413195598e+01
Ar 1.164718295650e+01 1.101604328888e+01 5.946803908058e+00
Ar 1.605075833017e+01 1.003934133408e-01 1.073394676033e+01
Ar 1.243434800118e+01 1.699561690594e+01 1.280489365503e+01
Ar 7.076294209288e+00 1.659573059325e+01 4.637698503389e+00
Ar 1.907214667159e-01 9.977511827705e+00 4.766565212945e+00
Ar 7.122184170804e+00 8.687751354902e+00 4.776509081111e+00
Ar 1.226567019997e+01 1.600504553561e+01 3.875400025148e+00
Ar 9.861468581588e+00 1.236977418806e+01 7.337890040764e+00
Ar 4.055325749450e+00 1.293030631719e+01 1.513138416524e+01
Ar 1.344050664734e+01 7.945817512888e+00 1.583821620939e+01
Ar 1.182023050412e+00 2.363516768009e+00 7.730034552649e+00
Ar 3.402397382180e+00 1.631141355071e+01 4.042813362702e+00
Ar 2.233836419626e+00 1.114470939404e+01 1.430546545109e+01
Ar 1.565971024521e+01 1.950662038003e+00 5.608128818704e+00
Ar 3.763535301119e+00 1.189696202930e+01 1.143088318995e+01
Ar 3.984725980129e+00 9.584199409580e+00 1.542172625503e+01
Ar 8.166620622408e+00 6.538138757785e+00 1.458268037985e+01
Ar 5.300264000375e+00 1.713784774923e+01 9.829133867835e+00
Ar 8.498226630183e+00 1.589147510173e+01 1.495799777085e+01
Ar 8.516537298627e+00 2.012163502276e+00 5.085343085615e+00
Ar 8.863557961728e+00 4.055336406256e+00 1.025563344802e+00
Ar 1.659146883146e+01 1.659482274014e+01 1.522183132253e+00
Ar 3.094626122475e-02 1.687044100218e+01 3.254701886583e+00
Ar 7.238737291929e-01 8.029087735677e+00 1.706123726300e+01
Ar 8.095052323012e-01 3.900161274390e+00 1.503849578701e+01
Ar 1.508936901894e+01 3.004305757699e+00 1.162844207817e+01
Ar 3.129663372000e+00 9.885292764066e+00 7.527682897169e+00
Ar 8.737219137763e+00 3.009707850631e+00 1.676208634040e+01
Ar 1.585648310228e+01 1.144407615226e+01 3.136915872357e+00
Ar 8.946440777211e+00 1.080099440437e+00 7.453284081391e+00
Ar 9.392343839359e+00 1.503576861152e+01 1.782017218794e+01
Ar 4.732429958574e+00 7.011107920075e+00 9.889561311785e+00
Ar 1.332116493017e+01 1.439303063576e+01 9.382326186645e+00
Ar 1.684952250613e+01 1.341549779821e+01 9.563020950413e+00
Ar 1.078459205201e+01 4.318912783360e+00 3.447608240418e+00
Ar 1.268942303811e+01 1.450074282574e+01 6.645565335998e+00
Ar 6.466404330807e+00 1.121745903479e+01 9.777139497036e+00
Ar 1.195053405380e+01 1.070285693352e+01 1.498445740550e+00
Ar 1.706418826482e+01 1.252055189879e+01 2.384194530009e+00
Ar 8.885535577535e+00 1.610988697686e+01 1.009211473262e+01
Ar 3.789316187823e+00 9.879775132014e+00 5.158363945670e+00
Ar 5.180716899658e+00 9.562454846626e+00 1.736537997862e+01
Ar 7.881154768320e+00 2.069891662393e+00 7.026109072168e+00
Ar 1.068174423548e+01 6.887395284587e+00 1.288968383345e+01
Ar 8.102916995912e+00 9.418699128425e+00 1.587116688941e+00
Ar 6.647155571173e+00 9.665475764416e+00 3.303165182359e+00
Ar 8.999620665795e+00 1.107000975628e+01 9.407643444284e+00
Ar 1.589214582150e+01 1.766230115724e+01 1.404331096769e+01
Ar 7.526948287817e+00 1.157848746310e+01 1.028010193275e+01
Ar 2.428615727325e+00 1.316576573203e+00 1.422163124809e+01
Ar 2.922809970419e+00 8.614487572696e+00 6.724169712594e+00
Ar 7.822415448562e+00 7.357799786643e+00 1.731639642686e+01
Ar 9.184684282104e+00 1.890974911587e-02 1.266849855790e+01
Ar 1.539060475016e+00 1.778469446471e+01 1.687976588013e+01
Ar 7.280157965975e+00 1.299701200202e+01 3.178149021539e+00
Ar 2.030796839149e+00 1.612806517570e+01 1.129488170684e+01
Ar 7.598299412522e+00 1.299764492922e-02 1.722255643120e+00
Ar 1.581022879255e+00 9.543690869002e+00 4.607041523592e+00
Ar 7.378341900225e+00 1.409151282404e+01 2.270768586135e+00
Ar 9.909424447175e+00 1.693009877563e+01 3.864464867944e+00
Ar 5.127635906272e+00 3.843055802917e+00 2.414144177478e+00
Ar 7.094093459040e+00 1.295359633467e+01 3.680342493625e-01
Ar 1.431317081496e+00 2.023292607813e+00 1.795190020886e+01
Ar 1.674116610036e+01 1.540682761905e+01 1.430224990321e+01
Ar 6.294081256746e+00 1.053223514466e+01 5.545714444861e+00
Ar 7.201744124269e-01 6.079860260581e+00 1.557354345385e+01
Ar 7.737342605863e+00 1.113495961461e+01 6.090452666940e+00
Ar 8.151018921240e+00 5.140725925326e+00 1.579887944586e+00
Ar 1.712687531571e+01 1.273551398614e+01 1.687995126321e+01
Ar 1.000502835366e+01 1.221257017201e+01 1.081619683182e+01
Ar 1.495834065437e+00 9.956297904275e+00 1.363717120345e+01
Ar 1.122052959576e+00 1.757021154936e+01 5.045155834163e+00
Ar 5.595322383129e+00 1.562671993039e+00 7.006009955875e+00
Ar 1.293074612220e+01 1.033730215684e+01 1.331473403628e+01
Ar 4.867374364859e+00 1.576448482638e+01 1.408863568062e+01
Ar 1.119602127642e+01 1.078249371980e+01 1.607041986356e+01
Ar 5.806390711097e+00 1.556363797913e+01 7.390591445434e-01
Ar 1.815823986201e+01 9.966330475401e+00 9.786726451020e+00
Ar 1.502078316663e+01 1.558415619865e+01 1.192823907584e+01
Ar 1.778441026295e+01 6.995295694361e+00 4.717351846642e+00
Ar 9.373003094533e+00 7.229594040508e+00 1.722672908699e+01
Ar 7.972093920043e+00 3.560286130930e+00 1.740656375401e+01
Ar 1.693537568802e+01 1.100585729788e+01 9.741850951918e+00
Ar 1.765475449118e+01 1.212757039249e-01 7.155794026486e+00
Ar 9.974070230955e+00 1.722211663865e+01 7.876760115426e+00
Ar 4.035957516512e+00 6.876754182899e+00 3.320861671202e+00
Ar 1.426555888568e+01 1.552181054454e+01 4.777262065104e+00
Ar 4.239015146033e+00 3.743370765013e+00 8.629462794892e+00
Ar 8.852805204408e+00 1.321439903043e+01 3.323540466863e+00
Ar 1.726259532521e+01 4.569254578742e-01 1.651962807976e+01
Ar 1.396701089093e+01 9.628845654370e+00 4.257710419579e+00
Ar 9.925037463505e+00 2.436757190930e+00 9.274081177638e+00
Ar 7.891866046005e+00 1.278169459128e+01 5.662538910430e+00
Ar 6.830415294801e-01 1.771208705212e+00 2.273554420400e+00
Ar 1.248379963504e+01 4.509800952569e+00 6.016897891656e+00
Ar 6.248196076308e+00 1.137415625757e+00 1.623501165337e+01
Ar 1.858636570105e+00 5.632298383280e+00 5.571785300351e+00
Ar 3.871192796599e+00 1.516371006224e+01 1.544225558478e+01
Ar 1.135813914992e+00 1.421375414994e+01 2.242190258528e+00
Ar 7.721320418082e+00 1.381413006238e+01 1.008564125946e+01
Ar 8.826801734269e+00 5.524669772703e+00 1.796092130680e+01
Ar 1.297730878908e+01 7.989410040369e+00 1.712193274825e+01
Ar 5.884818936664e+00 1.147229162750e+01 1.163690933336e+01
Ar 1.414319672763e+01 5.977372078021e+00 1.540583721600e+01
Ar 4.984749247002e-01 1.724099256508e+00 5.735537921392e-01
Ar 1.704048994723e+01 6.058893118961e+00 1.780292886337e+01
Ar 1.570553336780e+01 5.284947505532e+00 1.676840344377e+01
Ar 1.273133831677e+01 1.235666762239e+01 7.220996764788e+00
Ar 8.865152292639e+00 9.956108035145e+00 1.321317364719e+01
Ar 1.560425775308e+01 6.753182785377e+00 8.777162071806e-01
Ar 2.117351925458e+00 1.610671976787e+01 1.023486595808e+01
Ar 9.591444245820e+00 1.458151629281e+00 2.284799582103e+00
Ar 9.003564982130e+00 1.716351674395e+00 3.404293707724e+00
Ar 3.891004849755e+00 8.679746151451e+00 1.797750403966e+01
Ar 6.301886739154e+00 9.078735675749e+00 7.972380835717e+00
Ar 3.959141271843e+00 5.344940162371e-01 6.957579722578e+00
Ar 1.238388226948e+01 1.618764603050e+01 2.395929330310e+00
Ar 4.675724998739e+00 1.817256857713e+00 1.466492999932e+01
Ar 6.628933944259e+00 1.475788963120e+01 1.469003519989e+01
Ar 1.608605178791e+00 1.483454354846e+01 9.726292234380e-02
Ar 3.723552379836e+00 3.516529265915e-01 2.392759842520e+00
Ar 5.162477814965e+00 1.503942962591e+00 1.627232952476e+00
Ar 6.852557300812e+00 2.207066421936e+00 7.542053682627e+00
Ar 1.686672447816e+01 1.354142351331e+01 8.244607285295e+00
Ar 1.751834416182e+01 1.763696439553e+01 1.082291902282e+01
Ar 1.683423697099e+01 1.527560018451e+01 4.776501368597e+00
Ar 1.690420711503e+01 6.741397280446e+00 2.879574010418e-01
Ar 7.712934367496e+00 1.129787867738e+01 1.225712948804e+01
Ar 2.637248038031e-01 1.813228102654e+01 1.136659939298e+01
Ar 1.912032551566e+00 4.573352316359e+00 1.767889841089e+01
Ar 1.248952800994e+01 8.962356671720e-01 2.640032709879e+00
Ar 1.682571918236e+01 1.425685454776e+01 1.588987548091e+01
Ar 1.792789264963e+00 6.080538506810e+00 1.011115112977e+01
Ar 1.631485201687e+01 1.801860046175e+01 8.012442776799e+00
Ar 5.094521870538e-01 1.382051651305e+01 8.619929850642e+00
Ar 1.672505258532e+01 6.917171618853e+00 9.897901005314e+00
Ar 9.156356381112e+00 7.424976322471e+00 3.624825116815e-01
Ar 1.025951521935e+01 3.265175485853e+00 2.624940388089e+00
Ar 3.535133799290e+00 7.930025329195e+00 1.146140527348e+01
Ar 1.299199097159e+01 1.124341997900e+01 4.662580141147e+00
Ar 7.600185658942e+00 1.020020486500e+01 1.795340922624e+01
Ar 8.717451353329e+00 5.425381609878e+00 1.450254619986e+01
Ar 2.738225501097e+00 8.533362865212e+00 1.681845713440e+01
Ar 1.174506449275e+01 6.096605091507e+00 1.104612563640e+01
Ar 1.397966414391e+01 6.549551634550e+00 5.806669490920e+00
Ar 3.366245788632e+00 1.527754789826e+01 9.878625841382e+00
Ar 1.191877634962e+01 1.790335849697e+01 3.214227524184e+00
Ar 1.638191888495e+01 3.413702768509e+00 3.073757100284e+00
Ar 8.348352058486e+00 1.660412609476e+01 9.239618457935e+00
Ar 5.469746509000e+00 1.632042776732e+01 7.265208965241e+00
Ar 3.253589481862e+00 1.333891920550e+01 1.125024918841e+01
Ar 8.576384506612e+00 1.229049965655e+01 1.015208947886e+01
Ar 1.251137112927e+01 5.646123071974e+00 5.413310059027e+00
Ar 9.371058487761e+00 1.239652644441e+01 1.510803750473e+01
Ar 1.543773270809e+00 1.337089753391e+01 1.188988502163e+01
Ar 6.541607501941e+00 1.405686077551e+01 1.759868698526e+01
Ar 1.190757129047e+01 1.796874717125e+00 1.036505529647e+01
Ar 1.874882521267e+00 2.789805609529e+00 5.250876611138e+00
Ar 1.597558096536e+01 2.197903482708e+00 4.677353600538e+00
Ar 3.366676970411e+00 4.124472659444e+00 1.688184219505e+01
Ar 1.478384106993e+01 1.425334379859e+01 1.196253313402e+01
Ar 1.055727072810e+01 8.748063412715e+00 1.208082325871e+01
Ar 7.120874409842e+00 3.861262734072e+00 5.530654659331e-01
Ar 1.485878706859e+01 1.659248827282e+01 7.890742018325e+00
Ar 1.583537726429e+01 4.483939418782e+00 4.985198448004e+00
Ar 1.622431593228e+01 1.401911288112e+01 1.010829971512e+01
Ar 1.414922550110e+01 1.370096139653e+01 8.984338588430e+00
Ar 1.504666435087e+01 1.816873316746e+01 8.283595898200e+00
Ar 1.802811073219e+01 4.104196415562e+00 4.100650207249e+00
Ar 8.943519976386e+00 4.477944420617e+00 1.797199078194e+01
Ar 2.533377431038e-01 1.379360148896e+01 3.040469154411e+00
Ar 1.435784861338e+01 1.747688690360e+01 1.393150733852e+01
Ar 1.156535210962e+01 1.337966238736e+01 1.348748869765e+01
Ar 6.270643994158e+00 1.383126917307e+01 9.337644641318e+00
Ar 1.234115555804e+01 1.049702209011e+01 5.222543953624e+00
Ar 1.607115086175e+01 1.778130665835e+01 1.007690757707e+00
Ar 3.169843897034e+00 1.369879855168e+01 7.462206644334e+00
Ar 1.157973210987e+01 3.519479277910e-01 2.080622580131e+00
Ar 1.711584860790e+01 1.521806888957e+01 2.206469875956e+00
Ar 3.764414512001e+00 5.751703597838e+00 3.243034625338e+00
Ar 1.363109942225e+01 1.546938859976e+01 1.420755558701e+01
Ar 5.164333007126e+00 6.492484744416e+00 4.507914329715e+00
Ar 1.151153003643e+01 9.707509715035e+00 3.229531149702e+00
Ar 4.739908514781e+00 7.635547094570e+00 1.081655814036e+01
Ar 6.614934513718e+00 5.121690033289e+00 1.255186349822e+01
Ar 1.705220084769e+01 2.357944605669e+00 5.414043426557e+00
Ar 6.570531035424e+00 4.672563109502e+00 1.696797692903e+01
Ar 5.128500673391e+00 1.214252977369e+01 4.665055313349e+00
Ar 1.109489491923e+01 1.015713509468e+01 1.799499128133e+01
