343
L = 17.6678260714
Ar 1.255380715894e+01 1.582058426709e+01 1.484424526836e+01
Ar 5.999400971425e+00 1.431435175092e+01 1.093638308054e+01
Ar 4.320431109274e-01 1.039417474381e+01 8.130529806087e+00
Ar 2.141943667103e+00 1.757679469158e+01 1.076100373755e+01
Ar 7.832803645278e+00 6.138952296311e+00 1.624574434116e+01
Ar 7.719410541147e-01 1.344556024961e+01 1.499328595344e+00
Ar 6.877642811124e-01 1.678583431051e+01 9.403020297165e+00
Ar 5.622280915177e+00 1.447002714275e+01 1.294091333778e+01
Ar 1.085067343335e+01 1.615685619175e+00 5.650290973275e-01
Ar 1.297827976864e+01 5.289635174821e+00 1.336642195475e+01
Ar 1.235552281538e+01 4.045350346234e+00 5.378535811231e+00
Ar 1.594774725806e+01 3.062733487197e+00 1.482067824361e+01
Ar 5.032869788964e-01 9.686326904241e+00 4.515603992477e+00
Ar 1.665576549067e+01 4.108524508571e+00 1.539052238823e+01
Ar 4.360111814559e+00 2.130653065579e-01 9.281271045003e+00
Ar 3.103765201246e+00 1.685628097603e+01 1.381236375913e+01
Ar 8.941884503412e+00 6.257685755494e+00 1.119461533166e+01
Ar 1.255575185745e+01 7.279743885801e+00 5.506342606793e+00
Ar 4.171539317951e+00 1.490033565508e+01 8.432709435570e+00
Ar 7.392093777236e+00 2.025550051936e+00 1.299384927255e+01
Ar 8.151076716418e+00 1.172244913785e+01 1.659867439358e+01
Ar 1.445494725003e+01 9.053877475499e+00 1.282398328574e+01
Ar 1.178135901732e+01 9.923334532914e+00 2.127807784801e+00
Ar 1.502741118512e+01 1.175948847738e+01 1.127971776656e+01
Ar 1.735103808667e+01 1.044120545577e+01 1.313607459263e+01
Ar 1.017871192800e+01 1.189692718113e+01 1.712404373856e+01
Ar 1.728088066472e+01 1.679007575221e+01 1.740544457754e+00
Ar 9.173808048954e+00 3.992799459937e+00 5.390040149504e+00
Ar 8.015521607836e+00 1.316570134969e+01 1.350373272385e+01
Ar 2.640101836911e+00 2.141457465641e+00 1.641284930968e-02
Ar 4.033919448595e-01 1.441962061546e+01 7.192321334711e+00
Ar 3.666923696232e+00 1.362403086537e+01 3.879915038498e-01
Ar 5.652535095228e+00 8.150610771734e+00 1.278855952888e+01
Ar 5.151146843774e+00 1.353552104022e+01 1.568767555730e+01
Ar 1.382583832711e+01 1.479273199852e+01 1.360017742120e+01
Ar 3.101237704127e+00 6.520690440841e+00 4.327595235264e-01
Ar 8.384326561293e-01 1.200253317367e+01 1.099649670727e+01
Ar 4.716325407386e+00 3.677741719825e+00 5.258619044903e+00
Ar 1.542366342704e+01 1.114574977266e+01 1.653971930704e+01
Ar 1.150713081179e+01 4.786854392712e+00 4.630218162334e+00
Ar 1.427952877116e+01 4.419085649446e+00 1.627198486245e+01
Ar 3.995377979584e+00 1.661633472101e+00 4.363333198417e+00
Ar 1.080609338576e+01 7.724695358017e+00 1.256107372038e+01
Ar 1.134213634145e+01 2.437048806315e+00 2.841475380319e+00
Ar 8.079202624695e+00 2.105070999916e+00 5.543379159631e+00
Ar 1.500281506070e+01 1.522242531089e+00 1.272397675022e+01
Ar 1.017864976927e+01 1.681700559226e+01 5.676658447610e+00
Ar 7.787906220573e+00 4.339940182132e+00 9.442494054020e+00
Ar 6.094857829293e+00 1.012477608215e+01 8.838345870857e+00
Ar 2.274164519740e+00 1.131608463524e-01 9.596109074974e+00
Ar 8.399664028971e+00 9.662906103146e+00 1.491486212156e+01
Ar 1.100091611236e+01 1.587209160769e+01 1.926023674889e+00
Ar 5.700858389295e-01 1.074674982712e+01 1.050472858427e+01
Ar 3.530960492246e+00 5.269967425908e-01 4.081665193305e-01
Ar 9.629819134350e+00 1.476085851098e+00 1.007210838203e+01
Ar 5.811755523873e+00 2.563468760311e+00 1.706266638273e+01
Ar 1.306501768420e+00 7.764355992691e+00 1.398144714315e+01
Ar 1.219057511004e+01 1.262325675346e+01 4.930431539586e-01
Ar 4.234165294395e+00 1.237456931089e+01 9.478662460896e-01
Ar 1.152193680031e+01 6.549103624166e+00 5.285958470595e+00
Ar 1.335757159061e+00 1.129139063734e+01 1.027252773441e+01
Ar 1.283784748721e+01 4.505250862817e+00 1.469092883980e+01
Ar 6.050374707812e+00 2.542395119677e+00 7.977804973899e+00
Ar 8.321606236138e+00 1.295933789372e+01 1.918646364974e+00
Ar 1.114914878360e+01 2.453925972389e+00 7.767706161279e+00
Ar 9.267129799526e+00 1.228553586911e+01 7.608175689242e+00
Ar 1.326314429063e+01 1.731132179233e+01 1.097563105789e+00
Ar 1.727637483963e+01 8.519547603281e+00 5.290527340091e+00
Ar 1.610522366049e+01 1.020386928372e+01 1.410205092512e+01
Ar 1.289418715235e+01 6.411664642063e+00 9.222579455111e+00
Ar 1.235648532617e+01 7.286850000203e+00 2.032273155495e+00
Ar 4.231761058085e+00 1.202193256560e-01 1.181916648210e+01
Ar 1.643523240602e+01 1.404702321942e+01 4.011290812638e+00
Ar 1.198166220085e+01 7.976400552398e+00 2.802753538110e+00
Ar 1.181203968519e+01 1.765957454916e+01 1.661828941265e+01
Ar 1.679973890554e+01 1.000605419156e+01 1.177870081022e+01
Ar 7.169490161999e+00 1.272187818401e+01 8.141292243756e-01
Ar 2.923482605507e-01 1.323018228775e+01 7.489680763027e+00
Ar 9.841387869575e+00 7.482587433139e+00 2.260190427784e+00
Ar 1.589582007374e+00 1.187121269182e+01 5.287958550229e-01
Ar 1.291175413019e+01 2.528208539572e+00 6.988842177308e+00
Ar 4.721892432814e+00 3.777147400014e+00 3.374955754144e+00
Ar 1.378158767514e+01 7.213604878692e+00 1.322782840899e+01
Ar 1.400456445963e+00 1.200424806799e+01 9.544010445370e+00
Ar 4.007484981084e+00 2.024295839469e+00 1.480103348931e+01
Ar 1.479772347185e+00 4.558275914746e+00 7.041018549372e+00
Ar 1.202961843972e+01 1.670641637349e+01 1.734584009542e+01
Ar 1.126118524405e+01 1.727017359228e+01 8.861216440926e-01
Ar 1.346361325788e+00 9.715228630210e+00 1.142764080992e+01
Ar 1.502313961590e+01 5.405094143178e-01 4.864041877783e+00
Ar 1.585350578020e+01 1.627550493923e+01 1.239259872037e+01
Ar 1.667485160441e+01 1.505532668457e+01 9.018660461536e+00
Ar 1.609406603572e+01 2.024592991414e+00 1.017739137339e+00
Ar 1.600231597615e+01 2.877072341518e+00 1.789166260728e+00
Ar 1.557204921341e+01 5.993284354435e+00 6.295838770445e+00
Ar 9.239627468841e+00 3.555987607381e+00 4.302057391228e+00
Ar 7.239966708916e+00 1.196108882734e+01 2.163752604631e+00
Ar 4.534083928638e-01 7.889250388792e-01 1.463912571751e+01
Ar 3.405953091874e+00 5.763380304142e+00 1.181111836609e+01
Ar 1.027578545011e+01 1.889925848328e+00 4.273984990021e+00
Ar 1.070490541875e+01 3.862157909485e+00 1.036229010099e+01
Ar 8.250983145320e+00 1.842347158081e+00 3.287156299627e+00
Ar 1.034180715833e+01 1.259787108344e+01 7.612755335346e+00
Ar 9.353846869014e+00 1.225724645467e-01 1.091516607431e+01
Ar 2.213065915065e+00 1.442276574954e+00 1.596540057709e+01
Ar 8.559951995815e+00 1.006232763377e+01 8.622311087571e+00
Ar 1.593419218909e+01 1.439763381058e+01 1.697258646795e+01
Ar 2.857231800756e+00 1.278646090001e+01 9.549017451222e+00
Ar 1.794252778474e+00 1.287685781596e+01 1.709651575279e+01
Ar 3.602179490627e+00 7.562455120031e+00 1.697355018580e+01
Ar 1.242709476512e+01 5.329037306587e+00 1.619530963036e+01
Ar 1.627117881419e+01 1.356326013850e+00 1.118052223087e+01
Ar 9.052597737710e+00 1.397802026073e+01 9.625771100606e+00
Ar 9.646858762100e+00 9.106030177687e+00 2.051915715260e+00
Ar 1.588447064523e+01 1.547399565207e+01 1.121119770193e+01
Ar 1.172082065230e+01 8.372855940811e+00 1.586305738705e+01
Ar 3.461786341202e+00 1.321212224222e+01 1.622000517341e+01
Ar 3.899829772026e+00 6.807783069490e+00 5.886549238780e+00
Ar 1.572246223598e+01 8.453421698411e+00 3.572610244281e+00
Ar 1.438489253027e+01 1.193240288582e-01 6.026155677206e+00
Ar 1.418513760434e+00 1.543443514637e+01 1.490419559478e+01
Ar 7.432963515946e+00 9.719302078543e+00 6.437259240707e+00
Ar 1.543029321083e+01 7.024497548327e+00 1.128863031100e+01
Ar 1.513586571990e+01 8.415140603697e+00 8.481503773044e+00
Ar 8.543048413846e+00 1.656471242046e+01 1.902217779279e+00
Ar 1.651037371606e+01 7.941031637110e-01 1.474477652089e+00
Ar 9.627077343461e+00 7.581848388962e+00 7.440477421009e+00
Ar 6.888315945064e+00 1.936442449598e+00 1.009959770992e+01
Ar 1.097604059259e+01 1.452238710040e+01 1.664042864447e+01
Ar 1.653232973442e+01 1.741714414272e+01 1.331763158677e+00
Ar 1.427236202915e-01 4.519946760496e+00 1.541294191616e+01
Ar 1.384613266344e+01 6.617283734354e+00 6.904209699613e+00
Ar 5.052623713737e+00 2.673294626306e+00 2.870910122123e+00
Ar 1.210194443255e+01 2.730953021603e+00 5.501573977315e+00
Ar 1.030527392421e+01 7.382662687466e+00 1.097087283971e+01
Ar 1.710522240883e+00 1.320462423973e+01 1.536566541703e+01
Ar 6.681796232211e+00 1.396735937377e+01 9.184898986892e+00
Ar 1.686305335695e+01 9.569982671463e-01 7.071048591279e+00
Ar 1.308268198367e+01 9.599902873558e+00 2.604844199889e+00
Ar 7.378815397660e+00 1.615524573499e+01 8.215092677771e+00
Ar 1.747323470352e+01 1.189147062731e+01 1.055940927206e+01
Ar 1.519598241209e+01 7.846736757182e+00 2.852498260725e+00
Ar 7.866818070845e+00 1.185101940254e+01 3.358174766869e+00
Ar 1.208008474013e+01 6.030597455389e+00 1.537114871820e+01
Ar 6.961962902313e+00 7.539394714971e+00 1.127814567656e+01
Ar 8.297736519236e+00 1.388366849254e+01 3.876378575563e-01
Ar 1.079477814304e+01 8.140293963995e+00 4.226672716322e+00
Ar 1.046175562655e+01 9.492296992816e+00 1.320261768327e+01
Ar 8.581546046220e-01 5.216635265172e+00 1.417310180369e+01
Ar 1.650887034753e+01 1.888773305622e+00 1.445557487160e+01
Ar 1.441165499962e+00 1.716225384994e+01 1.368272992088e+01
Ar 9.081806104055e+00 2.171970739702e+00 2.723925671410e+00
Ar 6.530800685943e+00 3.420719327952e+00 1.692014938941e+01
Ar 1.708273412344e+01 1.374291030623e+01 6.846918031890e+00
Ar 1.900871663896e+00 1.367441033943e+01 9.014962695433e+00
Ar 1.684757767968e+01 5.650950539543e+00 1.391914398649e+00
Ar 9.986793489739e-01 3.231930640072e+00 1.483397931775e+01
Ar 6.910339021114e+00 1.766405472077e+01 1.146067424679e+01
Ar 9.228364443070e+00 7.141963162272e+00 3.597928177338e-02
Ar 9.654036716839e+00 1.100940316117e+01 1.398067605352e+00
Ar 1.630122120574e+01 3.515223335187e-02 1.672677575389e+01
Ar 1.163200749174e+01 1.887797263301e+00 9.956669615592e+00
Ar 9.884370115396e-01 1.300186605130e+01 1.920444755583e-01
Ar 1.674228232532e+01 4.910357428252e+00 1.036178553887e+01
Ar 1.385733894322e+01 5.457218992030e+00 1.211254438159e+01
Ar 4.039242268555e+00 1.339638456890e+01 1.396973040417e+01
Ar 8.743440688430e-01 4.093469228730e+00 1.371820786379e+01
Ar 1.061093593871e+01 7.760545964151e-03 1.733008011694e+01
Ar 1.586117021160e+01 7.240140293731e+00 4.750088811663e+00
Ar 6.050017364732e+00 1.059183541188e+01 6.467627995671e+00
Ar 1.031268759283e+01 4.815102190521e+00 7.262222947623e+00
Ar 1.382792016296e+00 9.717758907179e+00 1.762739925769e+01
Ar 1.565457084714e+01 1.425845337497e+01 1.043315551982e+01
Ar 1.191676152685e+01 5.939918047204e+00 3.701586140114e+00
Ar 5.688706111948e+00 2.771204621076e+00 1.390375724897e+01
Ar 1.707315633829e+01 1.503767194234e+01 1.183843696310e+01
Ar 1.676509429422e+01 6.689262615753e+00 4.632948184775e+00
Ar 1.644958529429e+01 8.214950598185e+00 2.772020795724e+00
Ar 1.275916869410e+01 8.614773621991e+00 1.081729925664e+01
Ar 6.445457004799e+00 4.709708577523e+00 1.731409077730e+01
Ar 1.091167486857e+01 5.624676072446e+00 1.233601053735e+01
Ar 9.610849380318e+00 5.872585048668e+00 1.402002100605e+01
Ar 2.093759958924e+00 6.079084286854e+00 1.549306971181e+01
Ar 1.455973306221e+00 1.481235663245e+01 2.653687185951e-01
Ar 1.125254905654e+01 4.473664431338e+00 1.443829185405e+01
Ar 1.395179671643e+01 1.689391456023e+01 5.681746726819e+00
Ar 4.831066352650e+00 1.126466526095e+01 8.692237811808e+00
Ar 5.129203787437e+00 1.350057447652e+01 1.438300083605e+00
Ar 1.201227324153e+01 6.246903979285e+00 1.100185340782e+01
Ar 1.447734399488e+01 7.379230405845e+00 1.053880945334e+01
Ar 5.346276213203e+00 7.578833959472e+00 3.885293279517e+00
Ar 3.151813692967e+00 1.497318010742e+01 1.454371307647e+01
Ar 5.861806827767e+00 3.873277307100e+00 1.682143326964e-01
Ar 7.533637517742e+00 9.163010806697e+00 1.602632536123e+00
Ar 1.977266275001e+00 1.458546784516e+01 1.421171627409e+01
Ar 1.185560092322e+01 6.652950592371e+00 1.256123605884e+01
Ar 5.012942434192e+00 1.536788145535e+01 1.643903246225e+01
Ar 1.239231355538e+01 2.577088418776e-01 1.846253227952e-01
Ar 2.827193896620e+00 4.442479951570e+00 3.251272539749e+00
Ar 1.313362112982e+01 3.976548581577e+00 4.116679889561e+00
Ar 9.762173361076e+00 1.524917927505e+01 1.459425568715e+01
Ar 1.319279794795e+01 1.008697119338e+01 1.230142967289e+01
Ar 5.143843735044e+00 1.338713184230e+01 1.288894632676e+01
Ar 1.538399840876e+01 1.031511291167e+01 1.512668964764e+01
Ar 1.718565319751e+01 1.638483914897e+01 8.915041866334e+00
Ar 2.258387297822e+00 6.321401761846e-01 4.802606931717e+00
Ar 1.030882979915e+01 3.851572827335e+00 1.250482067896e+01
Ar 4.998655013446e+00 5.738076944639e+00 7.436907069045e+00
Ar 5.683422223055e+00 1.187176876898e+01 5.276116410881e-01
Ar 1.604065064681e+01 1.405716962335e+01 7.332424353086e+00
Ar 9.282578499427e+00 1.287393096123e+01 9.871593172123e+00
Ar 7.885530938444e-01 9.406695676828e+00 1.030271885571e+01
Ar 1.250961602009e+01 1.220852147053e+01 5.166223288772e+00
Ar 1.831035738468e+00 3.410244809191e+00 1.183328022382e+01
Ar 2.821378578996e+00 1.629935020817e+01 4.031612493749e+00
Ar 2.582633921489e+00 1.382238467879e+01 3.617988933782e-01
Ar 2.435577795015e+00 1.667913922502e+01 3.041829578999e-01
Ar 1.658897968809e+01 1.096878154447e+01 9.434522425402e+00
Ar 1.752751428700e+01 4.259521016586e+00 9.438597848057e+00
Ar 5.792833473792e+00 1.707516965797e+01 7.971018648283e+00
Ar 1.595832281008e+01 1.349808201456e+01 1.356893469408e+01
Ar 1.143974382124e+00 7.938196012938e-01 1.582544380396e+01
Ar 1.604771796423e+01 1.584314003833e+01 9.599702738270e+00
Ar 7.635263377629e+00 1.657280818638e+01 4.235195061482e+00
Ar 1.698152626323e+01 1.383377979476e+01 1.334963323895e+01
Ar 7.175834729168e+00 1.163229206012e+01 1.718567477467e+01
Ar 1.350371091422e+01 1.259390622361e+01 1.031835081683e+01
Ar 2.824419173984e+00 7.292479243216e+00 6.458264553139e+00
Ar 1.027764675466e+01 1.222252908249e+01 4.222293830964e+00
Ar 4.139167769656e-01 1.401277931255e+01 2.732608252439e+00
Ar 3.284475996012e+00 1.439890651600e+01 7.237840140682e+00
Ar 6.507973685300e+00 1.692510604347e+01 4.248923350209e+00
Ar 1.304674836776e+01 1.393347396247e+01 8.748867140766e+00
Ar 5.049083701290e-01 8.836374916241e+00 5.812498025112e+00
Ar 9.060039910694e+00 9.422331161721e+00 9.497878538867e+00
Ar 8.776473606788e+00 1.173347946345e+01 9.033336853584e+00
Ar 8.702584685809e+00 1.437379745799e+01 7.564488524901e+00
Ar 1.557584725078e+01 1.582916825027e+01 3.138982174341e+00
Ar 3.160242729527e+00 1.099097982130e+01 7.706345705513e+00
Ar 8.476867179515e+00 1.624956953649e+00 1.008976281375e+01
Ar 8.614218935609e+00 1.110038966123e+01 1.316931628405e-02
Ar 1.166539944994e+01 5.007790362902e+00 1.191597726628e+01
Ar 8.567091164926e+00 1.108017311911e+01 4.433227283843e+00
Ar 1.541591596974e+01 1.030605180290e+00 1.432146268588e+00
Ar 1.761250004888e+01 5.179495600928e+00 9.808666281526e+00
Ar 1.021544792641e+01 4.454183405234e+00 1.133190222644e+01
Ar 3.125001690550e+00 5.784135562431e+00 1.446531248360e+01
Ar 5.615816379312e+00 1.289636548664e+01 7.364956399174e+00
Ar 4.204407250785e+00 1.376601818040e+01 9.798097687999e+00
Ar 6.026974914131e+00 1.734473346084e+01 9.282674652840e+00
Ar 1.632701070845e+01 8.712415031839e+00 9.436301464434e+00
Ar 1.135127583015e+01 1.453356035908e+01 5.355199155421e+00
Ar 2.506576671067e+00 7.954381959338e+00 1.054899612137e+01
Ar 3.833266772927e-01 1.086542930979e+01 9.393940893693e+00
Ar 1.440819742667e+01 8.510985793040e+00 1.045879488901e+01
Ar 8.276261372286e+00 5.805426231259e+00 2.306630721549e+00
Ar 4.594935089820e+00 1.966371809150e+00 1.320214418050e+01
Ar 9.395632765486e+00 1.134646462548e+01 9.943107954558e+00
Ar 3.769225716800e+00 1.241625383556e+01 1.024035343246e+01
Ar 7.911952061458e+00 1.331337551374e+01 6.038239018532e+00
Ar 1.015101866182e+01 8.733563138073e+00 1.001152117418e+01
Ar 1.663190666135e+01 1.388234072360e+01 1.544841422773e+01
Ar 4.277982290715e+00 1.293179555959e+01 1.550420198677e+01
Ar 5.203915592047e+00 1.427029978902e+00 1.387598881474e+01
Ar 9.390110325486e+00 1.721832101800e+00 8.435895226822e+00
Ar 3.195058733616e+00 3.860434635521e+00 6.459772726496e+00
Ar 3.063883676896e+00 1.275236659623e+00 7.647986086579e+00
Ar 3.455222335958e+00 1.159324782598e+01 1.578042234706e+01
Ar 5.446278247791e+00 6.836966665452e+00 5.710994688292e+00
Ar 1.746178145856e+01 6.641810995589e+00 3.900406833425e+00
Ar 1.392597150578e-01 1.500578642720e+01 3.185526142448e+00
Ar 1.306847465805e+01 4.659212502894e+00 1.675578913919e+01
Ar 8.340940411312e+00 7.881222491370e+00 1.521434314708e+01
Ar 1.742463497421e+01 1.598347848594e+01 3.358091633225e+00
Ar 1.162970861333e+01 6.538323408400e+00 1.678701306852e+01
Ar 1.665283185514e+01 3.350725855386e+00 6.494889931240e+00
Ar 5.074609280261e+00 2.857286662165e+00 4.375005035998e+00
Ar 1.430866832331e+01 3.383452799014e+00 3.758579902597e+00
Ar 1.056185839862e+01 6.309367588919e+00 3.702274143779e+00
Ar 4.328014756912e+00 1.439060363792e+01 1.224971303579e+01
Ar 1.303544745103e+01 7.828254149907e+00 1.240339503179e+00
Ar 1.225308704063e+01 1.723373000125e+01 1.802103783156e+00
Ar 7.268083902234e+00 2.731114062183e+00 3.308017375607e+00
Ar 6.986122887120e+00 1.122708397170e+01 7.317802433285e+00
Ar 1.363222132740e+01 9.837372437226e+00 4.672307688845e+00
Ar 1.128115962069e+00 2.453974992945e+00 2.714645207373e+00
Ar 6.557300018384e+00 1.546045580289e+01 7.683671805065e+00
Ar 4.052651781011e+00 1.142581100416e+01 9.743763987287e+00
Ar 1.177154709835e+01 1.716258348225e+01 8.708330421952e+00
Ar 1.610033369621e+01 1.315275342628e+01 9.826158450577e+00
Ar 1.710108393242e+01 4.074714742088e+00 3.479684967077e-02
Ar 1.595921930383e+01 1.244901647075e+01 1.196896935372e+01
Ar 4.558423718506e+00 1.654705439852e+01 4.728944660612e+00
Ar 1.183993512200e+01 1.326452004467e+01 7.877803751353e+00
Ar 7.920677513025e+00 6.029812854391e+00 6.258847295426e+00
Ar 6.404406781218e+00 8.659696025386e+00 1.568815091490e+00
Ar 1.479303701402e+01 1.714372268082e+01 4.546345876738e+00
Ar 8.740291261844e+00 6.880213538669e+00 2.675581604909e+00
Ar 7.594692691905e+00 4.448279882987e+00 1.142578244989e+01
Ar 1.062999753093e+01 9.319192445706e+00 7.691308469740e+00
Ar 9.524796258805e+00 8.011579459322e-01 8.310628146791e-01
Ar 1.952760813520e+00 1.611145810754e+01 1.453040817393e+00
Ar 7.030739965632e+00 1.024588647852e-01 8.211902582098e+00
Ar 1.160766355316e+01 1.523570097228e+01 1.541909437607e+01
Ar 1.168633490248e+01 1.561563796472e+01 1.178877069179e+00
Ar 1.184694565579e+01 4.726554751118e+00 6.289791224851e+00
Ar 1.542871796213e+00 8.686068013882e+00 1.113524076979e+01
Ar 1.398702393039e+01 5.251301069418e+00 1.375777436748e+01
Ar 5.337695635968e-01 1.377553330159e+01 1.245198019125e+01
Ar 4.320000323906e+00 1.094475957090e+01 1.729663353662e+01
Ar 1.715106868408e+01 6.802636395020e+00 1.095563668938e+00
Ar 1.255296290121e+01 1.558686347949e+01 1.602117249472e+01
Ar 1.680655424290e+01 2.483306840951e+00 3.391424077773e+00
Ar 2.316622070353e+00 5.506518985989e+00 1.757098014091e+01
Ar 1.457013461333e+01 4.801721799786e+00 5.331604241212e+00
Ar 1.340130980156e+01 1.047629232927e+01 6.102669558031e+00
Ar 9.066634781695e-01 1.003839948318e+01 1.671829969335e+01
Ar 5.279989810926e+00 6.827655227470e+00 1.234880207664e+01
Ar 7.420188289920e+00 1.116585917606e+00 1.089861439628e+01
Ar 4.415235533382e+00 3.161333234207e+00 7.860504431375e-01
Ar 5.379403543650e+00 4.478232815075e+00 9.556094006532e+00
Ar 1.180516860428e+00 1.411429990420e+01 1.487078376745e+01
Ar 1.517384684604e+01 3.377469432649e+00 6.401012438837e+00
Ar 8.963832998230e+00 4.835945597407e+00 9.420887329731e+00
Ar 1.401676988988e+01 9.486825543979e-01 1.713875620560e+01
Ar 2.646188123544e+00 1.649597811507e+01 1.677498287569e+01
Ar 1.217379753909e+01 8.530849884432e+00 6.271293352958e+00
Ar 1.202228377933e+01 1.904360075953e+00 4.540471680723e+00
Ar 1.442721179442e+01 9.263203828843e+00 1.606687730412e+01
Ar 5.577500065266e-01 5.202122415561e+00 6.254032691862e+00
Ar 9.076182485572e+00 1.371374828402e+01 1.735163995835e+01
Ar 6.078613468022e+00 1.258861259505e+00 1.305264823574e+01
Ar 1.558484866653e+01 1.594491932705e+01 1.449010382044e+00
Ar 1.715917905381e+01 2.813211067762e+00 1.580041360753e+01
Ar 6.941006644561e+00 3.764791845349e+00 1.376616942506e+01
Ar 1.465160456806e+01 1.590542193368e+01 1.330948904028e+01
Ar 1.575259306867e+01 6.562633935158e+00 1.149883404003e+00
Ar 1.565956255198e+01 1.690394397894e+01 2.622158872639e+00
Ar 1.409944884144e+01 5.484078056487e+00 1.099391448452e+01
Ar 5.131322097517e+00 1.545099958471e+01 1.331409257423e+01
Ar 9.603050191704e+00 1.021474075453e+01 1.432989930058e+01
Ar 1.403370254496e+01 2.473986858723e+00 1.635081160241e+01
Ar 1.937798920850e+00 7.665636351237e+00 1.631665159979e+01
