343
L = 18.3016081455
Ar 9.837937537161e-01 9.000155289190e-01 1.233687620900e+01
Ar 1.155820634794e+01 1.082199358218e+01 4.334577789975e+00
Ar 1.279825275276e+01 1.187878887364e+01 1.188817482880e+01
Ar 1.680767916465e+01 7.224434399243e-02 6.909824522092e+00
Ar 1.827671544094e+01 1.733903835703e+01 2.824024944387e+00
Ar 1.602911256184e+01 2.761148458339e+00 1.698381770150e+01
Ar 1.149756372196e+00 8.124208642846e+00 1.188509452552e+01
Ar 6.640669379127e-01 1.193289581165e+01 5.364954991587e+00
Ar 1.373248562336e+01 1.158989540848e+01 4.977008973631e+00
Ar 1.335856645716e+01 3.360032433221e+00 1.684018251713e+01
Ar 4.578619622315e+00 5.262865761397e+00 5.788800240983e+00
Ar 1.698067942739e+01 1.460369518730e+01 1.374756852993e+01
Ar 1.195950200333e+01 5.228320395154e+00 7.757630310054e+00
Ar 6.875854435400e+00 8.945060183695e+00 1.622355191942e+01
Ar 8.095147888739e+00 6.313341017767e-01 4.213215285613e+00
Ar 7.563637726099e+00 1.011606742748e+00 9.767677028268e+00
Ar 5.877877479013e+00 1.722038357730e+01 1.589852406540e+00
Ar 1.335367606341e+01 8.746757916982e+00 1.668989138102e+01
Ar 8.426652487309e+00 1.375658733206e+01 8.128549219491e+00
Ar 5.366626140215e+00 1.140173734904e+01 3.406603611414e+00
Ar 2.780668354900e+00 1.799724271630e+01 1.249378908694e+01
Ar 1.815162402671e+01 1.746639810980e+01 1.647532525626e+01
Ar 4.359359766803e+00 1.456750368986e+01 1.447949022872e+01
Ar 8.103443052857e+00 6.383583941332e+00 1.434610162230e+01
Ar 1.390979947860e+01 5.631030928280e+00 7.030739421030e+00
Ar 1.071697839565e+01 1.781309973789e+01 1.603339929751e+01
Ar 4.390123971827e+00 1.705231738536e+01 1.492957400703e+01
Ar 3.750781250419e+00 5.807798925560e+00 2.444564699473e+00
Ar 5.122490637368e+00 6.381383198648e+00 1.418272036092e+01
Ar 6.726125882661e+00 1.071117982147e+00 1.512094282033e+01
Ar 3.678969416874e+00 1.358671739845e+01 3.354502574147e+00
Ar 1.706897881461e+01 3.085514743922e-01 4.399885981280e+00
Ar 2.702025335290e+00 1.764981134367e+01 6.315882504563e+00
Ar 6.541351454963e+00 6.547364546127e-01 2.363930465688e+00
Ar 1.093923240004e+01 1.718861960463e+01 1.444022717731e+01
Ar 3.567885666459e+00 1.056924117518e+01 1.218526477919e+00
Ar 3.564805463860e+00 1.537725576301e+01 6.440552451921e+00
Ar 1.050296228155e+01 1.885265048734e+00 1.743305781076e+01
Ar 1.199873588264e+01 1.223387537901e+01 1.286572263492e+01
Ar 1.522777089495e+01 1.266335244160e+01 4.139323607952e+00
Ar 1.630660112498e+01 4.862462551697e+00 1.738249745449e+01
Ar 6.641170903349e+00 1.280604550994e+01 9.956474763353e+00
Ar 3.849033765728e+00 1.273487484178e+01 7.195585408168e+00
Ar 1.133745249617e+01 2.628619307230e+00 1.753484900362e+01
Ar 1.048148238201e+01 1.278005437281e+01 6.104407630715e+00
Ar 9.020406228450e+00 1.470311914012e+01 1.360269268999e+01
Ar 1.572638896690e+01 1.643721638747e+01 1.364699662550e+01
Ar 1.494590847824e+01 6.722622265615e+00 5.637636838757e+00
Ar 1.534582096762e+01 9.303902973037e+00 1.134577817908e+01
Ar 1.023553354797e+01 5.601855954852e+00 1.864321472713e+00
Ar 6.392416585557e+00 1.714762242667e+01 1.023225048721e+01
Ar 1.013102179152e+01 4.787298407172e+00 7.377855246987e+00
Ar 3.426774582458e+00 4.766267296375e+00 4.206592003039e+00
Ar 7.905154618129e+00 3.110212772849e-01 1.135535449166e+01
Ar 1.785653575968e+01 1.728956909864e+01 1.795837812865e+01
Ar 2.321075183361e+00 9.623798966161e+00 3.008034436520e+00
Ar 1.357864646439e+01 1.823104588573e+01 6.896789493582e+00
Ar 7.594505677547e+00 1.683682830274e+01 1.159565454814e+00
Ar 2.080661641095e+00 1.286995316360e+01 6.747860112060e+00
Ar 1.419079843049e+01 1.377726267953e+01 1.593842360125e+00
Ar 4.182179242472e+00 9.063305410532e+00 5.291447939176e+00
Ar 5.673187325751e+00 1.633783956134e+01 6.727529683251e+00
Ar 1.607594811648e+01 1.562652003715e+01 6.805019423855e+00
Ar 5.743590841511e-01 1.823579922387e+01 2.932835766445e+00
Ar 8.308690625451e+00 1.163277313276e+01 1.132394413015e+01
Ar 3.015612904468e+00 7.653093576336e+00 1.659391160746e+01
Ar 2.407765166805e+00 5.769429454729e+00 5.307977591655e+00
Ar 1.440808676715e+01 1.420096491452e+00 3.692225809009e+00
Ar 8.021132686451e+00 1.520324555699e+01 8.134991980391e+00
Ar 1.068268101980e+01 1.472486465641e+01 1.352460003208e+01
Ar 2.739846085298e+00 1.446475204403e+01 9.412930526009e+00
Ar 1.806155118199e+01 1.554594292120e+01 1.362005497863e+00
Ar 1.002621411532e+01 1.077653276401e+01 1.544262977074e+01
Ar 3.136735516333e+00 9.492939921280e-01 1.585451275419e+01
Ar 2.878876579957e+00 5.532591585910e+00 1.158886267765e+01
Ar 2.648474154736e+00 1.701251282965e+01 7.308639875297e+00
Ar 1.778117932467e+01 1.667785319256e+01 1.591769906352e+01
Ar 8.448059048585e+00 6.825871868270e+00 1.313954066205e+01
Ar 1.053406722406e+01 1.089232396450e+01 7.853841099091e+00
Ar 1.685843552641e+01 2.662548862172e+00 1.607285801985e+01
Ar 1.045731378095e+00 2.580090044694e+00 1.541412697839e+01
Ar 1.797220283897e+01 3.092296577077e-01 3.199834836931e+00
Ar 1.486156621356e+00 4.347327978425e+00 3.744185295914e+00
Ar 1.203036597835e+01 1.217726858759e+01 6.096483456213e-01
Ar 8.743715449681e+00 1.272682444240e+01 4.090706967636e+00
Ar 7.637345263993e+00 1.533864162380e+01 3.912290122868e+00
Ar 1.362851607855e+01 1.523880939902e+01 8.305724116797e+00
Ar 1.729204321741e+01 1.752320291327e+01 1.694450486250e+01
Ar 1.052070993138e+01 7.507803762170e+00 2.391152874636e+00
Ar 6.511281657608e+00 7.759353504402e+00 1.458190187614e+01
Ar 1.257890805426e+01 1.653773124220e+00 4.921742492870e+00
Ar 8.499282597874e+00 1.655419169203e+01 1.792067590447e+01
Ar 1.365728658625e+01 1.398776240148e+01 2.514248350895e-01
Ar 1.377676650743e+00 5.469391101813e+00 4.424138792361e+00
Ar 8.714810082285e+00 1.004335092154e+01 1.061880893375e+01
Ar 9.708292155777e+00 1.508163064327e+01 9.119492105089e+00
Ar 2.193038509900e-01 1.336932210145e+01 8.508046318854e+00
Ar 1.483695122888e+01 1.486242971433e+01 1.747954553055e+01
Ar 1.070652342857e+01 1.336412902033e+01 3.616178837378e+00
Ar 1.783855964363e+01 1.508556986162e+01 5.739171077024e+00
Ar 1.235580958133e+01 1.387694647986e+01 6.980210937913e-01
Ar 3.002173761201e+00 1.319209436351e+01 7.681760507712e+00
Ar 1.059425234649e+01 1.523747353324e+01 2.091511390312e+00
Ar 1.301587429748e+01 1.316833054898e+01 1.435549188308e+01
Ar 1.667680283682e+01 8.622258166315e+00 8.594542281166e+00
Ar 1.522709124628e+01 1.627894443277e+01 3.568475022898e+00
Ar 1.691010718915e+01 7.345754334112e+00 4.029558303353e+00
Ar 1.453974302959e+00 6.387695520241e+00 1.464299146553e+01
Ar 2.716945025743e-01 1.751548584026e+01 6.876937350054e-01
Ar 1.375377696774e+01 1.281539195973e+01 6.259400011197e+00
Ar 4.772013721272e+00 1.405008325129e+01 1.586328404174e+01
Ar 8.492288381325e+00 8.604715289431e+00 7.122404732874e+00
Ar 8.691924888833e+00 4.744491519022e+00 1.530403846317e+01
Ar 1.353350166058e+01 1.190410753987e+00 1.611769890208e+01
Ar 5.692131825696e+00 1.088172970609e+01 1.983273818333e+00
Ar 1.311300054351e+01 1.630573601737e+01 1.559399347133e+01
Ar 2.756306258392e+00 3.352322503077e+00 1.499095289259e+01
Ar 1.775561113880e+01 5.001655430371e+00 1.771046754735e+01
Ar 1.245894724343e+01 1.663023388841e+01 1.459126745532e+01
Ar 1.135820844464e+01 7.311063439551e+00 2.622003909484e+00
Ar 1.331135980380e+01 1.435775783668e+00 4.002638921693e+00
Ar 1.910934560083e+00 1.103433327896e+01 3.866168320832e+00
Ar 1.649857463578e+01 1.727318124029e+01 7.038359396701e+00
Ar 1.332848621621e+01 8.045662553100e+00 1.497986166917e+01
Ar 8.209208214205e+00 1.546097057631e+01 1.399497361469e+01
Ar 8.839118650754e+00 1.275043135637e+01 1.217976674871e+01
Ar 1.849117682790e+00 7.951728959878e+00 1.390769248806e+01
Ar 5.120096733121e+00 4.540737837079e+00 4.878371943492e+00
Ar 1.163201708015e+01 1.439982870270e+00 1.272706846747e+01
Ar 1.684624680604e+01 9.918830208349e+00 1.712865407528e+01
Ar 1.541084788044e+01 1.472731139918e+01 9.618002580751e+00
Ar 5.764615135676e+00 1.092240625220e+00 5.381461816784e+00
Ar 1.698329721957e+01 3.754134202233e+00 1.351342283204e+01
Ar 4.872380264315e+00 9.742285226485e+00 2.317577141766e+00
Ar 5.068219236025e+00 6.095264399389e+00 1.961088492484e+00
Ar 1.711551515933e+01 1.764013056423e+01 1.313358024238e+00
Ar 8.755393484655e+00 6.078922120582e+00 1.538992819796e+01
Ar 1.339094206746e+01 8.421412238558e+00 2.632357491164e+00
Ar 2.957138573098e+00 6.798415382031e-02 1.092053736563e+01
Ar 1.143464532378e+00 8.305111777972e+00 1.800185024013e+01
Ar 1.323688513653e+01 1.395916526032e+01 1.160922056487e+01
Ar 8.828494065041e+00 1.767952057882e+01 3.040575780048e+00
Ar 4.938780609062e+00 1.327347701637e+01 1.339068914002e+01
Ar 1.176239351798e+01 1.379644036819e+01 8.614214423584e+00
Ar 1.013778385869e+01 5.500280975593e+00 1.307905528660e+01
Ar 1.687536581774e+01 2.209189657297e+00 1.263313676881e+01
Ar 1.497187495155e+01 6.527231096858e+00 1.052510623535e+01
Ar 1.293338303710e+01 1.463702533102e+01 1.055309844815e+00
Ar 1.401296282746e+01 1.660060656380e+01 1.099446113586e+01
Ar 5.815816246534e-01 2.547419478405e+00 8.959436991334e+00
Ar 1.096633037771e+01 7.471811457356e+00 1.618821128957e+01
Ar 1.407779393539e+01 2.197459992932e+00 1.023690902587e+01
Ar 6.531516700954e-01 2.777419191775e+00 1.729687354182e+01
Ar 1.448290175137e+01 1.020604152567e+01 5.936185628696e-01
Ar 7.206157141127e-01 1.741572434847e+01 1.587337865866e+01
Ar 1.047286798092e+01 9.585139963190e+00 1.795233760586e+01
Ar 1.212378400502e+00 1.035116657201e+01 8.379056730949e+00
Ar 6.089718207409e+00 5.614275154199e+00 1.129580906840e+01
Ar 8.425082876818e-01 2.220527878037e-01 4.129820735377e+00
Ar 1.457196351340e+01 1.792798543556e+01 4.123323079093e+00
Ar 3.616579466101e-01 6.456340354677e+00 2.059036888816e+00
Ar 1.086984112038e+01 1.625757097546e+01 7.297101933795e+00
Ar 6.458616043160e+00 1.420227672389e+01 9.085281181108e+00
Ar 1.611202586039e+01 8.729405606773e+00 1.980493620125e+00
Ar 1.786619155047e+00 1.125385650083e+01 1.534606751041e+01
Ar 1.561923536406e+01 3.373726386558e+00 9.661014130751e+00
Ar 1.272118879120e+01 1.484990456902e+01 1.077519993234e+01
Ar 2.384543196866e+00 1.031568025868e+01 5.361211391542e-01
Ar 1.085995256027e+01 3.615923739792e-02 6.448962732847e+00
Ar 4.546328391654e+00 7.640513650756e+00 3.834767067733e-01
Ar 4.576109240816e+00 6.856617984288e+00 1.730666538805e+01
Ar 9.812252791463e+00 1.395129775612e+01 5.949428652143e+00
Ar 1.518456317281e+01 6.056046712274e+00 1.488730558094e+01
Ar 1.044571325141e+01 7.237094924489e+00 1.446376237507e+00
Ar 3.817495438115e+00 1.559609505878e+00 1.683058621863e+01
Ar 9.570085921928e+00 1.825749265136e+01 7.315733146607e+00
Ar 1.649478738403e+00 1.070618889917e+01 5.392929883681e+00
Ar 1.748493967607e+01 8.069909432617e+00 4.704635431374e+00
Ar 1.201544751616e+01 7.691272670965e+00 1.718714124736e+01
Ar 6.389221006725e+00 1.785885299633e+01 1.259438884230e+01
Ar 7.381300002374e+00 1.718764027072e+01 1.718688093990e+01
Ar 1.526633788286e+01 1.709648380991e+01 1.454179521187e+01
Ar 1.405303456884e+01 1.629745646860e+01 1.767816557416e+01
Ar 8.922704397967e+00 6.822426789412e+00 4.582454331299e+00
Ar 1.501491392468e+01 1.507562301440e+01 5.930673222379e+00
Ar 1.486454851420e+01 1.530181158765e+01 8.470106789539e+00
Ar 1.149724499672e+01 1.245631330865e+01 1.007098917124e+01
Ar 1.223066884438e+01 1.682841753896e+01 1.332580921942e+01
Ar 1.721409141250e+01 1.033722879754e+01 1.612708011108e+01
Ar 7.526364610904e+00 8.809952534986e+00 6.828572603816e+00
Ar 9.391793364922e+00 4.533027821239e+00 8.038254302006e+00
Ar 1.034196189278e+01 1.037750114052e+01 1.375730791081e+01
Ar 1.497140066102e+00 3.981066913593e+00 9.022218533449e+00
Ar 1.335868895749e+01 2.026249327197e+00 1.112985583918e+01
Ar 1.152408191462e+01 1.380214616742e+01 1.067295354786e+01
Ar 1.330256238464e+01 1.404684816034e+01 1.381996744991e+01
Ar 4.408637520856e+00 3.839478165869e+00 4.611635822090e+00
Ar 1.812291751706e+01 1.816597623380e+01 4.018215672770e+00
Ar 3.001219568082e+00 8.801763421198e+00 1.761395032021e+01
Ar 5.527071649016e-01 3.991281577701e+00 1.155526606766e+01
Ar 6.707116891336e-01 1.698211357324e+01 4.662585629744e+00
Ar 9.292684439596e+00 5.319030475815e+00 7.122446581680e+00
Ar 1.483782375597e+01 1.757671975520e+01 1.281482692074e+00
Ar 1.797448920464e+01 1.469364185133e+01 4.108923848507e+00
Ar 1.125404024266e+01 4.056204847667e+00 1.214920513969e+01
Ar 9.026651089836e+00 9.903015513632e+00 8.876619393751e+00
Ar 6.088544191882e+00 8.474144845094e+00 1.188408320450e+00
Ar 1.626464647177e+01 1.146283657650e+01 1.339804115469e+01
Ar 1.088044375824e+01 1.316388954499e+01 9.076657531222e+00
Ar 1.737757758788e+01 1.055516313675e+01 1.033800622949e+01
Ar 5.434139020306e+00 1.461156100346e+01 3.368630289687e+00
Ar 5.643355659262e+00 7.693399261158e+00 5.009910709723e+00
Ar 6.701139302347e+00 1.064318756410e+01 6.892332112097e+00
Ar 1.067974923937e+01 1.168214144341e+01 7.072643979338e+00
Ar 1.183666450315e+01 5.360127941799e+00 8.260791985634e-02
Ar 1.533223236388e+01 1.478350669975e+00 1.803524274878e-01
Ar 1.709959171417e+01 8.939139465570e+00 6.030032580653e+00
Ar 1.304958809762e+01 1.526469028057e+01 6.796988821514e+00
Ar 8.301133197953e+00 8.802743567380e+00 3.172620891309e+00
Ar 1.604638018475e+01 4.151952418082e+00 7.761649862296e+00
Ar 5.271607918631e+00 1.506218968568e+01 1.938481978780e+00
Ar 1.043132705929e+01 1.236422134385e+01 9.924303322759e+00
Ar 1.330836124248e+01 4.213483820889e+00 4.277303896009e+00
Ar 6.822334661800e+00 2.174479766237e+00 7.434393457962e+00
Ar 9.152698694349e+00 1.496902896979e+01 8.178111212261e+00
Ar 2.973780707311e+00 1.783452852759e+00 4.760593309377e+00
Ar 1.044596525028e+01 1.153847313810e+01 1.442661616513e+01
Ar 3.277704636921e+00 1.328621582007e+00 3.037213043018e-01
Ar 1.745212940846e+01 7.407408092616e+00 1.397477804161e+01
Ar 8.614992475052e+00 2.660092267586e+00 1.793932822197e+01
Ar 1.288900390831e+01 6.559618651875e+00 1.058998682585e+01
Ar 7.086901826326e+00 6.284795755327e+00 1.380799530327e+01
Ar 1.347923730422e+01 1.020536262153e-01 2.878348761828e+00
Ar 1.137392028305e+01 7.847890993932e+00 4.777891654969e+00
Ar 4.856386114385e+00 8.698094735564e+00 1.918359013215e+00
Ar 1.741281180985e+01 1.805151648460e+01 2.435804376194e+00
Ar 8.299600420452e+00 8.740876939873e+00 1.164871888233e+01
Ar 1.619633988890e+01 1.471848803822e+01 1.134823289049e+01
Ar 1.127648769815e+01 1.739662488734e+01 1.822794301102e+01
Ar 2.462040951798e+00 1.179427760807e+01 1.956020063659e+00
Ar 1.712690470007e+01 3.710521695950e+00 1.737926451176e+01
Ar 9.009936109108e+00 1.451640500625e+01 9.793671994124e+00
Ar 6.727021280686e+00 6.991073524277e+00 6.191254421736e+00
Ar 5.053774086631e+00 5.663099788715e+00 2.913509975201e-01
Ar 1.487109941101e+00 9.632519202003e+00 9.019256002950e+00
Ar 1.050419374998e+01 6.493229139633e+00 2.209864552367e+00
Ar 9.317046045144e+00 1.748331402675e+01 1.053475174692e+01
Ar 1.250255574928e+01 5.013828408602e-01 2.479704054398e+00
Ar 1.107644094489e-01 2.709780784617e+00 4.956259116084e+00
Ar 1.088680740701e+01 3.214073715203e-02 1.733414990112e+01
Ar 1.495137808311e+01 3.248039023324e+00 3.294765924999e-01
Ar 9.116037994980e+00 7.454852702956e+00 1.171799809491e+01
Ar 1.411009065998e+01 1.270848379225e-01 1.624256993633e+01
Ar 9.932996334396e+00 1.806417935916e+01 1.265657134274e+01
Ar 1.437473273268e+01 1.654574150256e+01 1.447515416999e+01
Ar 6.732957501104e+00 5.165449152015e+00 5.802625520885e+00
Ar 1.023732219821e+01 1.628714228313e+01 1.065258098168e+01
Ar 5.527847487714e+00 1.055974075500e+01 1.505223423472e+01
Ar 1.072794528351e+01 1.044164619797e+01 6.530873236834e+00
Ar 1.431846390661e+00 1.120839732905e+01 1.693569638037e+01
Ar 4.324934600405e+00 1.766059466381e+01 1.741642050469e+01
Ar 1.512057310167e+01 1.221655022618e+01 7.477441545494e+00
Ar 4.835114295989e+00 1.401632089664e+01 7.388674160160e+00
Ar 1.743745618323e+01 1.705555637592e+01 7.430784950520e+00
Ar 1.174101965686e+01 5.066262576273e+00 9.420110742674e+00
Ar 5.872522842889e+00 4.925971688852e+00 7.823083678741e+00
Ar 6.847987542852e+00 1.307174059017e+01 1.461364631668e+01
Ar 8.910366124902e+00 5.896329443670e+00 5.796840131257e+00
Ar 1.309587904868e+01 1.696822851617e+01 1.797165082983e+00
Ar 1.626670014065e+01 8.558013121890e+00 1.708219011677e+01
Ar 1.783583322913e+01 6.890799436038e+00 4.117157841259e+00
Ar 5.637212540674e+00 1.382085309203e+01 1.004467080132e+00
Ar 1.084194956449e+01 1.591785074791e+01 1.179799866109e+01
Ar 1.308580885453e+01 1.603170689647e+00 1.017729551194e+01
Ar 1.549959661523e+01 9.249398939729e+00 1.422527336404e+01
Ar 2.831824903957e+00 2.146236611452e+00 1.509019245102e+01
Ar 1.175789084882e+01 1.151049483214e+01 7.025902791976e+00
Ar 1.073535807024e+01 3.351152191734e+00 1.474943518453e+01
Ar 1.318053418124e+01 1.076706060672e+01 9.196374904827e+00
Ar 5.622064267653e+00 1.079212243962e+01 8.358935425916e+00
Ar 9.713254737598e+00 1.631073050832e+01 1.471333936426e+01
Ar 8.093522783913e+00 7.460611488239e+00 9.594762307698e+00
Ar 2.071032907056e-01 4.893769738222e-01 1.625900398453e+01
Ar 1.246654790945e+00 1.024349425720e+01 1.566341048565e+01
Ar 9.080394374603e+00 9.080867026407e+00 4.203025428190e+00
Ar 1.623774083727e+01 6.587690139018e+00 4.051653075772e+00
Ar 1.597677168593e+01 9.629249755411e+00 1.092028444091e+00
Ar 7.027906150307e+00 1.656165687551e+01 1.945384126711e-01
Ar 1.777621470823e+00 6.344120664629e+00 1.067850799551e+01
Ar 6.366549492211e+00 1.406402616018e+01 1.754137819668e+01
Ar 1.765198536439e+00 2.282260860555e+00 1.434274929537e+01
Ar 8.757161085641e+00 8.061145544868e+00 4.016336264700e+00
Ar 5.325791470339e+00 6.613559780016e+00 9.458755024841e-01
Ar 1.611329503424e+00 1.096590589596e+01 6.571408948281e+00
Ar 4.352383442285e+00 1.417452235813e+01 9.431339441471e+00
Ar 1.231425409537e+01 1.560118601408e+01 1.275912081084e+01
Ar 4.483325593876e+00 4.404246785373e-01 1.742351823169e+01
Ar 9.494141767738e+00 1.752302153972e+01 1.512954892946e+01
Ar 5.383974777663e+00 1.803873859804e+01 1.566781735382e+01
Ar 5.589776123859e-01 6.978393902544e+00 1.362892230444e+01
Ar 4.660055372266e+00 1.613941248003e+01 1.776807149785e+00
Ar 1.748787968624e+00 1.132121119628e+01 9.422073729546e+00
Ar 1.566104710059e+01 1.530847266928e+01 1.673615846837e+01
Ar 1.730290461797e+01 4.182887284598e+00 9.310742158614e+00
Ar 1.384632921354e+01 1.116361376356e+01 1.349372862955e+00
Ar 1.363197604900e+01 1.793322653196e+01 1.399496064282e+01
Ar 4.757853994456e+00 1.066367386810e+01 1.157343223495e+01
Ar 6.491681229029e+00 3.075722017456e+00 1.171237214676e+01
Ar 1.097865223105e+01 1.455774480101e+01 5.330534765764e+00
Ar 6.706561562952e+00 1.028166141023e+01 1.028355264059e+01
Ar 1.221866498517e+01 1.769064163119e+01 7.883923896313e-01
Ar 1.842631834681e+00 1.107414591935e+00 1.732784388315e+01
Ar 1.184304847471e+01 2.917222243325e+00 1.610136840488e+01
Ar 1.255876186408e+01 1.250556064408e+01 9.166542052957e+00
Ar 2.982186877660e+00 1.985507611616e+00 1.208459650721e+01
Ar 1.520511694980e+01 2.514485556724e-01 1.235486540598e+01
Ar 1.003897184683e+01 7.124012281492e+00 4.210209349491e+00
Ar 5.944333045640e+00 5.977473894624e+00 1.747018030867e+01
Ar 1.130984913786e+01 1.442225234135e+01 9.592940621865e+00
Ar 7.959857352880e+00 1.118484228961e+01 1.672985096956e+01
Ar 6.765350040733e+00 1.133563167085e+01 9.632465988127e+00
Ar 1.485086604589e+01 1.580796317150e+01 2.602345485913e+00
Ar 1.029079084745e+00 3.058246453664e+00 9.934214884680e+00
Ar 1.635773072758e+01 1.762271634302e+00 6.422991657781e+00
Ar 2.965816857425e+00 1.624116495977e+01 5.492877438208e+00
Ar 7.376514749246e+00 1.048880379905e+00 3.137063358796e+00
Ar 9.573607276833e+00 6.307200202278e+00 2.595936998034e+00
Ar 1.437534886813e+01 9.799147739111e+00 9.541472250704e+00
Ar 1.576241912085e+01 1.622715832892e+01 1.137116843848e+01
Ar 7.488104886469e+00 1.500090371143e+01 1.739009041939e+01
Ar 1.575696493621e+01 1.109225917831e+01 1.161287518555e+01
Ar 1.166988166698e+01 1.754155611214e+01 1.977123964765e+00
Ar 1.688634868495e+01 8.418837360112e+00 1.270184751540e+00
Ar 1.444797086212e+01 9.601845242808e+00 1.105222090884e+01
Ar 6.523618228516e+00 3.403378202535e+00 7.135633925558e+00
Ar 2.651780117193e+00 2.011119616071e+00 1.771836921544e+01
Ar 4.320473559594e+00 6.966950140680e+00 6.034837452165e+00
Ar 1.562988087063e+01 1.499412365592e+01 1.471683764616e+01
Ar 7.458269866192e+00 1.389672712007e+01 7.639158736904e+00
Ar 1.295731410586e+01 1.744383360830e+01 1.556707619957e+01
Ar 1.462462716947e+01 1.111313716036e+01 1.291793170308e+01
Ar 1.033041897645e+01 1.762193589896e+01 1.350837170532e+01
Ar 7.926300723253e+00 4.703210373984e+00 1.219226670400e+01
